####################################################################### 
# 
# This file contains crystal structure data downloaded from the 
# Cambridge Structural Database (CSD) hosted by the Cambridge 
# Crystallographic Data Centre (CCDC).
# 
# Full information about CCDC data access policies and citation 
# guidelines are available at http://www.ccdc.cam.ac.uk/access/V1 
# 
# Audit and citation data items may have been added by the CCDC. 
# Please retain this information to preserve the provenance of 
# this file and to allow appropriate attribution of the data. 
# 
#######################################################################

data_MOF-1
_audit_block_doi                 10.5517/cc114gh4
_database_code_depnum_ccdc_archive 'CCDC 957605'
loop_
_citation_id
_citation_doi
_citation_year
1 10.1002/chem.201300144 2013
_audit_update_record             
;
2013-08-27 deposited with the CCDC.	2021-12-15 downloaded from the CCDC.
;

_audit_creation_method           SHELXL-97
_chemical_name_systematic        
;
 ?
;
_chemical_name_common            ?
_chemical_melting_point          ?
_chemical_formula_moiety         'C63 H75 N3 O30 Zn3'
_chemical_formula_sum            'C63 H75 N3 O30 Zn3'
_chemical_formula_weight         1550.37

loop_
_atom_type_symbol
_atom_type_description
_atom_type_scat_dispersion_real
_atom_type_scat_dispersion_imag
_atom_type_scat_source
C C 0.0181 0.0091 'International Tables Vol C Tables 4.2.6.8 and 6.1.1.4'
H H 0.0000 0.0000 'International Tables Vol C Tables 4.2.6.8 and 6.1.1.4'
O O 0.0492 0.0322 'International Tables Vol C Tables 4.2.6.8 and 6.1.1.4'
Zn Zn -1.5491 0.6778 'International Tables Vol C Tables 4.2.6.8 and 6.1.1.4'
N N 0.0311 0.0180 'International Tables Vol C Tables 4.2.6.8 and 6.1.1.4'

_symmetry_cell_setting           cubic
_symmetry_space_group_name_H-M   'Pn-3 '

loop_
_symmetry_equiv_pos_as_xyz
'x, y, z'
'-x+1/2, -y+1/2, z'
'x, -y+1/2, -z+1/2'
'-x+1/2, y, -z+1/2'
'z, x, y'
'y, z, x'
'-z+1/2, -x+1/2, y'
'-y+1/2, z, -x+1/2'
'z, -x+1/2, -y+1/2'
'-y+1/2, -z+1/2, x'
'-z+1/2, x, -y+1/2'
'y, -z+1/2, -x+1/2'
'-x, -y, -z'
'x-1/2, y-1/2, -z'
'-x, y-1/2, z-1/2'
'x-1/2, -y, z-1/2'
'-z, -x, -y'
'-y, -z, -x'
'z-1/2, x-1/2, -y'
'y-1/2, -z, x-1/2'
'-z, x-1/2, y-1/2'
'y-1/2, z-1/2, -x'
'z-1/2, -x, y-1/2'
'-y, z-1/2, x-1/2'

_cell_length_a                   22.0720(5)
_cell_length_b                   22.0720(5)
_cell_length_c                   22.0720(5)
_cell_angle_alpha                90.00
_cell_angle_beta                 90.00
_cell_angle_gamma                90.00
_cell_volume                     10752.9(4)
_cell_formula_units_Z            4
_cell_measurement_temperature    293(2)
_cell_measurement_reflns_used    2113
_cell_measurement_theta_min      3.1
_cell_measurement_theta_max      67.5

_exptl_crystal_description       block
_exptl_crystal_colour            colorless
_exptl_crystal_size_max          0.241
_exptl_crystal_size_mid          0.220
_exptl_crystal_size_min          0.165
_exptl_crystal_density_meas      ?
_exptl_crystal_density_diffrn    0.958
_exptl_crystal_density_method    'not measured'
_exptl_crystal_F_000             3216
_exptl_absorpt_coefficient_mu    1.273
_exptl_absorpt_correction_type   multi-scan
_exptl_absorpt_correction_T_min  0.7498
_exptl_absorpt_correction_T_max  0.8222
_exptl_absorpt_process_details   ?

_exptl_special_details           
;
 ?
;

_diffrn_ambient_temperature      293(2)
_diffrn_radiation_wavelength     1.54184
_diffrn_radiation_type           CuK\a
_diffrn_radiation_source         'fine-focus sealed tube'
_diffrn_radiation_monochromator  graphite
_diffrn_measurement_device_type  'Oxford Diffraction Gemini R Ultra'
_diffrn_measurement_method       '\w scan'
_diffrn_detector_area_resol_mean 10.0
_diffrn_standards_number         ?
_diffrn_standards_interval_count ?
_diffrn_standards_interval_time  ?
_diffrn_standards_decay_%        ?
_diffrn_reflns_number            31170
_diffrn_reflns_av_R_equivalents  0.0733
_diffrn_reflns_av_sigmaI/netI    0.0234
_diffrn_reflns_limit_h_min       -20
_diffrn_reflns_limit_h_max       25
_diffrn_reflns_limit_k_min       -25
_diffrn_reflns_limit_k_max       20
_diffrn_reflns_limit_l_min       -24
_diffrn_reflns_limit_l_max       26
_diffrn_reflns_theta_min         3.47
_diffrn_reflns_theta_max         66.75
_reflns_number_total             3163
_reflns_number_gt                2037
_reflns_threshold_expression     >2\s(I)

_computing_data_collection       'CrysAlis (Oxford Diffraction, 2006)'
_computing_cell_refinement       CrysAlis
_computing_data_reduction        CrysAlis
_computing_structure_solution    ?
_computing_structure_refinement  'SHELXL-97 (Sheldrick, 2008)'
_computing_molecular_graphics    'SHELXS-97 (Sheldrick, 2008)'
_computing_publication_material  ?

_refine_special_details          
;
 Refinement of F^2^ against ALL reflections.  The weighted R-factor wR and
 goodness of fit S are based on F^2^, conventional R-factors R are based
 on F, with F set to zero for negative F^2^. The threshold expression of
 F^2^ > 2\s(F^2^) is used only for calculating R-factors(gt) etc. and is
 not relevant to the choice of reflections for refinement.  R-factors based
 on F^2^ are statistically about twice as large as those based on F, and R-
 factors based on ALL data will be even larger.
;

_refine_ls_structure_factor_coef Fsqd
_refine_ls_matrix_type           full
_refine_ls_weighting_scheme      calc
_refine_ls_weighting_details     
'calc w=1/[\s^2^(Fo^2^)+(0.0894P)^2^+0.0000P] where P=(Fo^2^+2Fc^2^)/3'
_atom_sites_solution_primary     direct
_atom_sites_solution_secondary   difmap
_atom_sites_solution_hydrogens   geom
_refine_ls_hydrogen_treatment    mixed
_refine_ls_extinction_method     none
_refine_ls_extinction_coef       ?
_refine_ls_number_reflns         3163
_refine_ls_number_parameters     117
_refine_ls_number_restraints     6
_refine_ls_R_factor_all          0.0746
_refine_ls_R_factor_gt           0.0490
_refine_ls_wR_factor_ref         0.1524
_refine_ls_wR_factor_gt          0.1379
_refine_ls_goodness_of_fit_ref   0.937
_refine_ls_restrained_S_all      0.937
_refine_ls_shift/su_max          0.000
_refine_ls_shift/su_mean         0.000

loop_
_atom_site_label
_atom_site_type_symbol
_atom_site_fract_x
_atom_site_fract_y
_atom_site_fract_z
_atom_site_U_iso_or_equiv
_atom_site_adp_type
_atom_site_occupancy
_atom_site_symmetry_multiplicity
_atom_site_calc_flag
_atom_site_refinement_flags
_atom_site_disorder_assembly
_atom_site_disorder_group
Zn1 Zn 0.407458(16) 0.092542(16) 0.407458(16) 0.0958(3) Uani 1 3 d S . .
Zn2 Zn 0.5000 0.0000 0.5000 0.0854(3) Uani 1 6 d S . .
C1 C 0.48827(15) 0.18489(14) 0.55102(17) 0.1156(9) Uani 1 1 d . . .
C2 C 0.48348(14) 0.24335(13) 0.53291(15) 0.1077(8) Uani 1 1 d . . .
H2 H 0.4644 0.2525 0.4965 0.129 Uiso 1 1 calc R . .
C3 C 0.50717(17) 0.29004(15) 0.56889(17) 0.1268(11) Uani 1 1 d . . .
C4 C 0.5370(3) 0.2759(2) 0.6217(2) 0.187(2) Uani 1 1 d . . .
H4 H 0.5539 0.3062 0.6455 0.225 Uiso 1 1 calc R . .
C5 C 0.5414(3) 0.2158(2) 0.6388(3) 0.237(3) Uani 1 1 d U . .
H5 H 0.5619 0.2061 0.6744 0.285 Uiso 1 1 calc R . .
C6 C 0.5168(3) 0.17049(19) 0.6053(2) 0.192(2) Uani 1 1 d U . .
H6 H 0.5190 0.1305 0.6185 0.230 Uiso 1 1 calc R . .
C7 C 0.46338(14) 0.13546(14) 0.51154(16) 0.1050(8) Uani 1 1 d . . .
C8 C 0.52674(16) 0.39672(13) 0.57679(15) 0.1185(10) Uani 1 1 d . . .
H8A H 0.5702 0.3908 0.5799 0.142 Uiso 1 1 calc R . .
H8B H 0.5101 0.4018 0.6172 0.142 Uiso 1 1 calc R . .
C9 C 0.51214(16) 0.45080(12) 0.53737(14) 0.0951(8) Uani 1 1 d . . .
O1 O 0.46542(10) 0.08245(9) 0.52945(10) 0.1187(6) Uani 1 1 d . . .
O2 O 0.44076(10) 0.15230(9) 0.46124(10) 0.1147(6) Uani 1 1 d . . .
O1W O 0.35474(11) 0.14526(11) 0.35474(11) 0.1631(16) Uani 1 3 d S . .
O3 O 0.49860(11) 0.34660(9) 0.54622(11) 0.1353(9) Uani 1 1 d . . .

loop_
_atom_site_aniso_label
_atom_site_aniso_U_11
_atom_site_aniso_U_22
_atom_site_aniso_U_33
_atom_site_aniso_U_23
_atom_site_aniso_U_13
_atom_site_aniso_U_12
Zn1 0.0958(3) 0.0958(3) 0.0958(3) -0.00077(18) 0.00077(18) -0.00077(18)
Zn2 0.0854(3) 0.0854(3) 0.0854(3) 0.0004(2) -0.0004(2) 0.0004(2)
C1 0.130(2) 0.0866(18) 0.131(2) -0.0072(18) -0.017(2) 0.0010(16)
C2 0.117(2) 0.0903(18) 0.116(2) -0.0107(16) -0.0203(17) -0.0096(15)
C3 0.148(3) 0.097(2) 0.136(3) -0.001(2) -0.048(2) -0.0080(19)
C4 0.263(6) 0.118(3) 0.181(4) 0.001(3) -0.117(4) -0.025(3)
C5 0.375(9) 0.118(3) 0.220(5) -0.003(3) -0.173(6) 0.001(4)
C6 0.284(6) 0.102(3) 0.188(4) 0.007(3) -0.104(4) 0.005(3)
C7 0.106(2) 0.089(2) 0.120(2) -0.0110(17) 0.0073(18) -0.0007(16)
C8 0.135(2) 0.0966(19) 0.124(2) -0.0106(17) -0.040(2) -0.0251(18)
C9 0.1055(17) 0.0877(17) 0.092(2) -0.0136(13) -0.0259(14) -0.0267(18)
O1 0.1352(16) 0.0900(14) 0.1311(16) -0.0052(11) 0.0158(14) 0.0024(12)
O2 0.1332(16) 0.0927(12) 0.1182(15) -0.0086(11) -0.0070(13) -0.0075(11)
O1W 0.1631(16) 0.1631(16) 0.1631(16) 0.0269(15) -0.0269(15) 0.0269(15)
O3 0.175(2) 0.0883(12) 0.1427(18) -0.0045(12) -0.0660(15) -0.0294(12)

_geom_special_details            
;
 All s.u.'s (except the s.u. in the dihedral angle between two l.s. planes)
 are estimated using the full covariance matrix.  The cell s.u.'s are taken
 into account individually in the estimation of s.u.'s in distances, angles
 and torsion angles; correlations between s.u.'s in cell parameters are only
 used when they are defined by crystal symmetry.  An approximate (isotropic)
 treatment of cell s.u.'s is used for estimating s.u.'s involving l.s. planes.
;

loop_
_geom_bond_atom_site_label_1
_geom_bond_atom_site_label_2
_geom_bond_distance
_geom_bond_site_symmetry_2
_geom_bond_publ_flag
Zn1 O2 1.921(2) 9 ?
Zn1 O2 1.921(2) . ?
Zn1 O2 1.921(2) 10 ?
Zn1 O1W 2.015(4) . ?
Zn2 O1 2.078(2) 10 ?
Zn2 O1 2.078(2) 9 ?
Zn2 O1 2.078(2) . ?
Zn2 O1 2.078(2) 22_656 ?
Zn2 O1 2.078(2) 13_656 ?
Zn2 O1 2.078(2) 21_656 ?
C1 C2 1.355(4) . ?
C1 C6 1.391(5) . ?
C1 C7 1.500(4) . ?
C2 C3 1.402(4) . ?
C2 H2 0.9300 . ?
C3 O3 1.358(4) . ?
C3 C4 1.374(5) . ?
C4 C5 1.383(6) . ?
C4 H4 0.9300 . ?
C5 C6 1.356(6) . ?
C5 H5 0.9300 . ?
C6 H6 0.9300 . ?
C7 O1 1.236(3) . ?
C7 O2 1.273(4) . ?
C8 O3 1.437(3) . ?
C8 C9 1.512(4) . ?
C8 H8A 0.9700 . ?
C8 H8B 0.9700 . ?
C9 C9 1.390(3) 17_666 ?
C9 C9 1.390(3) 18_666 ?

loop_
_geom_angle_atom_site_label_1
_geom_angle_atom_site_label_2
_geom_angle_atom_site_label_3
_geom_angle
_geom_angle_site_symmetry_1
_geom_angle_site_symmetry_3
_geom_angle_publ_flag
O2 Zn1 O2 116.79(4) 9 . ?
O2 Zn1 O2 116.79(4) 9 10 ?
O2 Zn1 O2 116.79(4) . 10 ?
O2 Zn1 O1W 100.45(7) 9 . ?
O2 Zn1 O1W 100.45(7) . . ?
O2 Zn1 O1W 100.45(7) 10 . ?
O1 Zn2 O1 93.85(9) 10 9 ?
O1 Zn2 O1 93.85(9) 10 . ?
O1 Zn2 O1 93.85(9) 9 . ?
O1 Zn2 O1 180.00(13) 10 22_656 ?
O1 Zn2 O1 86.15(9) 9 22_656 ?
O1 Zn2 O1 86.15(9) . 22_656 ?
O1 Zn2 O1 86.15(9) 10 13_656 ?
O1 Zn2 O1 86.15(9) 9 13_656 ?
O1 Zn2 O1 180.00(12) . 13_656 ?
O1 Zn2 O1 93.85(9) 22_656 13_656 ?
O1 Zn2 O1 86.15(9) 10 21_656 ?
O1 Zn2 O1 180.0 9 21_656 ?
O1 Zn2 O1 86.15(9) . 21_656 ?
O1 Zn2 O1 93.85(9) 22_656 21_656 ?
O1 Zn2 O1 93.85(9) 13_656 21_656 ?
C2 C1 C6 120.5(3) . . ?
C2 C1 C7 119.5(3) . . ?
C6 C1 C7 120.0(3) . . ?
C1 C2 C3 120.3(3) . . ?
C1 C2 H2 119.9 . . ?
C3 C2 H2 119.9 . . ?
O3 C3 C4 126.0(3) . . ?
O3 C3 C2 114.5(3) . . ?
C4 C3 C2 119.4(3) . . ?
C3 C4 C5 119.0(4) . . ?
C3 C4 H4 120.5 . . ?
C5 C4 H4 120.5 . . ?
C6 C5 C4 121.9(4) . . ?
C6 C5 H5 119.1 . . ?
C4 C5 H5 119.0 . . ?
C5 C6 C1 118.9(4) . . ?
C5 C6 H6 120.6 . . ?
C1 C6 H6 120.6 . . ?
O1 C7 O2 124.7(3) . . ?
O1 C7 C1 119.3(3) . . ?
O2 C7 C1 116.0(3) . . ?
O3 C8 C9 104.2(2) . . ?
O3 C8 H8A 110.9 . . ?
C9 C8 H8A 110.9 . . ?
O3 C8 H8B 110.9 . . ?
C9 C8 H8B 110.9 . . ?
H8A C8 H8B 108.9 . . ?
C9 C9 C9 119.997(4) 17_666 18_666 ?
C9 C9 C8 121.6(4) 17_666 . ?
C9 C9 C8 118.4(4) 18_666 . ?
C7 O1 Zn2 137.9(2) . . ?
C7 O2 Zn1 119.25(19) . . ?
C3 O3 C8 118.3(2) . . ?

loop_
_geom_torsion_atom_site_label_1
_geom_torsion_atom_site_label_2
_geom_torsion_atom_site_label_3
_geom_torsion_atom_site_label_4
_geom_torsion
_geom_torsion_site_symmetry_1
_geom_torsion_site_symmetry_2
_geom_torsion_site_symmetry_3
_geom_torsion_site_symmetry_4
_geom_torsion_publ_flag
C6 C1 C2 C3 -0.2(6) . . . . ?
C7 C1 C2 C3 -179.2(3) . . . . ?
C1 C2 C3 O3 -179.0(3) . . . . ?
C1 C2 C3 C4 2.1(6) . . . . ?
O3 C3 C4 C5 179.5(6) . . . . ?
C2 C3 C4 C5 -1.8(9) . . . . ?
C3 C4 C5 C6 -0.5(11) . . . . ?
C4 C5 C6 C1 2.4(11) . . . . ?
C2 C1 C6 C5 -2.1(9) . . . . ?
C7 C1 C6 C5 177.0(5) . . . . ?
C2 C1 C7 O1 -176.8(3) . . . . ?
C6 C1 C7 O1 4.2(6) . . . . ?
C2 C1 C7 O2 2.5(5) . . . . ?
C6 C1 C7 O2 -176.5(4) . . . . ?
O3 C8 C9 C9 95.1(4) . . . 17_666 ?
O3 C8 C9 C9 -84.2(4) . . . 18_666 ?
O2 C7 O1 Zn2 57.5(5) . . . . ?
C1 C7 O1 Zn2 -123.3(3) . . . . ?
O1 Zn2 O1 C7 -98.3(3) 10 . . . ?
O1 Zn2 O1 C7 -4.2(3) 9 . . . ?
O1 Zn2 O1 C7 81.7(3) 22_656 . . . ?
O1 Zn2 O1 C7 98(100) 13_656 . . . ?
O1 Zn2 O1 C7 175.8(3) 21_656 . . . ?
O1 C7 O2 Zn1 -0.6(4) . . . . ?
C1 C7 O2 Zn1 -179.8(2) . . . . ?
O2 Zn1 O2 C7 -91.8(2) 9 . . . ?
O2 Zn1 O2 C7 53.3(3) 10 . . . ?
O1W Zn1 O2 C7 160.8(2) . . . . ?
C4 C3 O3 C8 5.1(7) . . . . ?
C2 C3 O3 C8 -173.7(3) . . . . ?
C9 C8 O3 C3 175.7(3) . . . . ?

_diffrn_measured_fraction_theta_max 0.990
_diffrn_reflns_theta_full        66.75
_diffrn_measured_fraction_theta_full 0.989
_refine_diff_density_max         0.201
_refine_diff_density_min         -0.165
_refine_diff_density_rms         0.036

# SQUEEZE RESULTS (APPEND TO CIF)
# Note: Data are Listed for all Voids in the P1 Unit Cell
# i.e. Centre of Gravity, Solvent Accessible Volume,
# Recovered number of Electrons in the Void and
# Details about the Squeezed Material
loop_
_platon_squeeze_void_nr
_platon_squeeze_void_average_x
_platon_squeeze_void_average_y
_platon_squeeze_void_average_z
_platon_squeeze_void_volume
_platon_squeeze_void_count_electrons

_platon_squeeze_void_content
1 0.009 0.117 0.401 6814 1703 ' '
_platon_squeeze_details          
;
;
