####################################################################### 
# 
# This file contains crystal structure data downloaded from the 
# Cambridge Structural Database (CSD) hosted by the Cambridge 
# Crystallographic Data Centre (CCDC).
# 
# Full information about CCDC data access policies and citation 
# guidelines are available at http://www.ccdc.cam.ac.uk/access/V1 
# 
# Audit and citation data items may have been added by the CCDC. 
# Please retain this information to preserve the provenance of 
# this file and to allow appropriate attribution of the data. 
# 
#######################################################################

data_cv140
_audit_block_doi                 10.5517/ccpm1v5
_database_code_depnum_ccdc_archive 'CCDC 643927'
loop_
_citation_id
_citation_doi
_citation_year
1 10.1016/j.materresbull.2006.01.022 2006
_audit_update_record             
;
2007-04-13 deposited with the CCDC.	2021-12-15 downloaded from the CCDC.
;

_audit_creation_method           SHELXL-97
_chemical_name_systematic        
;
?
;
_chemical_name_common            MIL-96
_chemical_melting_point          ?
_chemical_formula_moiety         ?
_chemical_formula_sum            'C9 H3 In2 O12'
_chemical_formula_weight         532.75

loop_
_atom_type_symbol
_atom_type_description
_atom_type_scat_dispersion_real
_atom_type_scat_dispersion_imag
_atom_type_scat_source
C C 0.0033 0.0016 'International Tables Vol C Tables 4.2.6.8 and 6.1.1.4'
O O 0.0106 0.0060 'International Tables Vol C Tables 4.2.6.8 and 6.1.1.4'
In In -0.7276 1.3100 'International Tables Vol C Tables 4.2.6.8 and 6.1.1.4'
H H 0.0000 0.0000 'International Tables Vol C Tables 4.2.6.8 and 6.1.1.4'

_symmetry_cell_setting           hexagonal
_symmetry_space_group_name_H-M   P63/mmc

loop_
_symmetry_equiv_pos_as_xyz
'x, y, z'
'-y, x-y, z'
'-x+y, -x, z'
'-x, -y, z+1/2'
'y, -x+y, z+1/2'
'x-y, x, z+1/2'
'y, x, -z'
'x-y, -y, -z'
'-x, -x+y, -z'
'-y, -x, -z+1/2'
'-x+y, y, -z+1/2'
'x, x-y, -z+1/2'
'-x, -y, -z'
'y, -x+y, -z'
'x-y, x, -z'
'x, y, -z-1/2'
'-y, x-y, -z-1/2'
'-x+y, -x, -z-1/2'
'-y, -x, z'
'-x+y, y, z'
'x, x-y, z'
'y, x, z-1/2'
'x-y, -y, z-1/2'
'-x, -x+y, z-1/2'

_cell_length_a                   15.32130(10)
_cell_length_b                   15.32130(10)
_cell_length_c                   32.5710(3)
_cell_angle_alpha                90.00
_cell_angle_beta                 90.00
_cell_angle_gamma                120.00
_cell_volume                     6621.45(9)
_cell_formula_units_Z            12
_cell_measurement_temperature    293(2)
_cell_measurement_reflns_used    ?
_cell_measurement_theta_min      ?
_cell_measurement_theta_max      ?

_exptl_crystal_description       ?
_exptl_crystal_colour            ?
_exptl_crystal_size_max          ?
_exptl_crystal_size_mid          ?
_exptl_crystal_size_min          ?
_exptl_crystal_density_meas      ?
_exptl_crystal_density_diffrn    1.603
_exptl_crystal_density_method    'not measured'
_exptl_crystal_F_000             3012
_exptl_absorpt_coefficient_mu    2.130
_exptl_absorpt_correction_type   ?
_exptl_absorpt_correction_T_min  ?
_exptl_absorpt_correction_T_max  ?
_exptl_absorpt_process_details   ?

_exptl_special_details           
;
?
;

_diffrn_ambient_temperature      293(2)
_diffrn_radiation_wavelength     0.71073
_diffrn_radiation_type           MoK\a
_diffrn_radiation_source         'fine-focus sealed tube'
_diffrn_radiation_monochromator  graphite
_diffrn_measurement_device_type  ?
_diffrn_measurement_method       ?
_diffrn_detector_area_resol_mean ?
_diffrn_standards_number         ?
_diffrn_standards_interval_count ?
_diffrn_standards_interval_time  ?
_diffrn_standards_decay_%        ?
_diffrn_reflns_number            34120
_diffrn_reflns_av_R_equivalents  0.0687
_diffrn_reflns_av_sigmaI/netI    0.0254
_diffrn_reflns_limit_h_min       -18
_diffrn_reflns_limit_h_max       17
_diffrn_reflns_limit_k_min       -17
_diffrn_reflns_limit_k_max       18
_diffrn_reflns_limit_l_min       -38
_diffrn_reflns_limit_l_max       22
_diffrn_reflns_theta_min         1.25
_diffrn_reflns_theta_max         25.00
_reflns_number_total             2235
_reflns_number_gt                2066
_reflns_threshold_expression     >2sigma(I)

_computing_data_collection       ?
_computing_cell_refinement       ?
_computing_data_reduction        ?
_computing_structure_solution    ?
_computing_structure_refinement  'SHELXL-97 (Sheldrick, 1997)'
_computing_molecular_graphics    ?
_computing_publication_material  ?

_refine_special_details          
;
Refinement of F^2^ against ALL reflections. The weighted R-factor wR and
goodness of fit S are based on F^2^, conventional R-factors R are based
on F, with F set to zero for negative F^2^. The threshold expression of
F^2^ > 2sigma(F^2^) is used only for calculating R-factors(gt) etc. and is
not relevant to the choice of reflections for refinement. R-factors based
on F^2^ are statistically about twice as large as those based on F, and R-
factors based on ALL data will be even larger.
;

_refine_ls_structure_factor_coef Fsqd
_refine_ls_matrix_type           full
_refine_ls_weighting_scheme      calc
_refine_ls_weighting_details     
'calc w=1/[\s^2^(Fo^2^)+(0.0600P)^2^+55.5391P] where P=(Fo^2^+2Fc^2^)/3'
_atom_sites_solution_primary     direct
_atom_sites_solution_secondary   difmap
_atom_sites_solution_hydrogens   geom
_refine_ls_hydrogen_treatment    mixed
_refine_ls_extinction_method     SHELXL
_refine_ls_extinction_coef       0.00116(11)
_refine_ls_extinction_expression Fc^*^=kFc[1+0.001xFc^2^\l^3^/sin(2\q)]^-1/4^
_refine_ls_number_reflns         2235
_refine_ls_number_parameters     139
_refine_ls_number_restraints     0
_refine_ls_R_factor_all          0.0537
_refine_ls_R_factor_gt           0.0482
_refine_ls_wR_factor_ref         0.1378
_refine_ls_wR_factor_gt          0.1348
_refine_ls_goodness_of_fit_ref   1.273
_refine_ls_restrained_S_all      1.273
_refine_ls_shift/su_max          0.001
_refine_ls_shift/su_mean         0.000

loop_
_atom_site_label
_atom_site_type_symbol
_atom_site_fract_x
_atom_site_fract_y
_atom_site_fract_z
_atom_site_U_iso_or_equiv
_atom_site_adp_type
_atom_site_occupancy
_atom_site_symmetry_multiplicity
_atom_site_calc_flag
_atom_site_refinement_flags
_atom_site_disorder_assembly
_atom_site_disorder_group
In1 In 0.57965(2) 0.42035(2) 0.59211(2) 0.0174(3) Uani 1 2 d S . .
In2 In 0.5000 0.5000 0.5000 0.0158(3) Uani 1 4 d S . .
In3 In 0.92274(4) 0.07726(4) 0.7500 0.0150(3) Uani 1 4 d S . .
O1 O 0.8432(4) 0.1568(4) 0.7500 0.030(2) Uani 1 4 d S . .
O2 O 1.0000 0.0000 0.7500 0.020(4) Uani 1 12 d S . .
O3 O 0.8169(4) -0.0181(4) 0.70285(17) 0.0345(13) Uani 1 1 d . . .
O4 O 0.5713(3) 0.4287(3) 0.5273(2) 0.035(2) Uani 1 2 d S . .
O5 O 0.5289(6) 0.2645(3) 0.5938(3) 0.0343(19) Uani 1 2 d S . .
O6 O 0.4216(4) 0.3799(5) 0.59851(18) 0.0404(15) Uani 1 1 d . . .
O7 O 0.5763(4) 0.4237(4) 0.6593(3) 0.057(3) Uani 1 2 d S . .
O8 O 0.6264(4) 0.5723(5) 0.45822(19) 0.0472(18) Uani 1 1 d . . .
OW1 O 0.6667 0.3333 0.4850(5) 0.055(4) Uani 1 6 d S . .
OW2 O 0.3745(18) 0.1873(9) 0.5294(6) 0.059(6) Uani 0.50 2 d SP . .
OW3 O 0.4860(13) 0.5140(13) 0.6940(10) 0.111(12) Uani 0.50 2 d SP . .
OW4 O 0.7835(14) 0.2165(14) 0.6837(10) 0.135(16) Uani 0.50 2 d SP . .
OW5 O 1.025(3) 0.377(2) 0.7500 0.122(12) Uani 0.50 2 d SP . .
C1 C 0.7936(8) -0.1032(4) 0.6888(3) 0.023(2) Uani 1 2 d S . .
C2 C 0.6407(6) 0.6089(6) 0.4227(2) 0.0280(17) Uani 1 1 d . . .
C3 C 0.7264(8) -0.1368(4) 0.6506(3) 0.026(2) Uani 1 2 d S . .
C4 C 0.8064(4) 0.6128(9) 0.4215(3) 0.029(2) Uani 1 2 d S . .
H4 H 0.7877 0.5754 0.4456 0.034 Uiso 1 2 calc SR . .
C5 C 0.7406(6) 0.6412(6) 0.4031(2) 0.0297(18) Uani 1 1 d . . .
C6 C 0.6980(6) -0.2299(5) 0.6327(2) 0.0281(17) Uani 1 1 d . . .
H6 H 0.7172 -0.2726 0.6448 0.034 Uiso 1 1 calc R . .

loop_
_atom_site_aniso_label
_atom_site_aniso_U_11
_atom_site_aniso_U_22
_atom_site_aniso_U_33
_atom_site_aniso_U_23
_atom_site_aniso_U_13
_atom_site_aniso_U_12
In1 0.0177(3) 0.0177(3) 0.0193(4) 0.00034(13) -0.00034(13) 0.0109(3)
In2 0.0162(4) 0.0162(4) 0.0135(5) -0.00038(18) 0.00038(18) 0.0069(4)
In3 0.0155(4) 0.0155(4) 0.0131(5) 0.000 0.000 0.0071(4)
O1 0.037(5) 0.037(5) 0.030(6) 0.000 0.000 0.030(6)
O2 0.014(5) 0.014(5) 0.032(9) 0.000 0.000 0.007(3)
O3 0.044(3) 0.028(3) 0.035(3) -0.018(3) -0.026(3) 0.021(3)
O4 0.058(4) 0.058(4) 0.015(3) 0.0006(15) -0.0006(15) 0.047(5)
O5 0.024(4) 0.018(3) 0.062(5) 0.0023(19) 0.005(4) 0.012(2)
O6 0.027(3) 0.062(4) 0.041(3) 0.019(3) 0.009(3) 0.029(3)
O7 0.077(6) 0.077(6) 0.024(4) 0.000(2) 0.000(2) 0.044(6)
O8 0.028(3) 0.079(5) 0.043(3) 0.036(3) 0.019(3) 0.033(3)
OW1 0.054(7) 0.054(7) 0.057(10) 0.000 0.000 0.027(3)
OW2 0.083(16) 0.067(9) 0.033(9) -0.015(5) -0.031(10) 0.041(8)
OW3 0.096(14) 0.096(14) 0.12(2) -0.044(11) 0.044(11) 0.029(17)
OW4 0.103(13) 0.103(13) 0.13(2) 0.082(13) -0.082(13) 0.002(17)
OW5 0.15(3) 0.072(19) 0.18(3) 0.000 0.000 0.08(2)
C1 0.017(5) 0.020(4) 0.030(5) -0.004(2) -0.007(4) 0.008(3)
C2 0.023(4) 0.030(4) 0.032(4) 0.011(3) 0.005(3) 0.014(3)
C3 0.033(6) 0.024(4) 0.025(5) -0.007(2) -0.014(5) 0.016(3)
C4 0.022(4) 0.040(7) 0.029(5) 0.020(5) 0.010(3) 0.020(3)
C5 0.024(4) 0.040(5) 0.031(4) 0.016(3) 0.006(3) 0.020(4)
C6 0.038(4) 0.021(4) 0.033(4) -0.004(3) -0.015(3) 0.020(4)

_geom_special_details            
;
All esds (except the esd in the dihedral angle between two l.s. planes)
are estimated using the full covariance matrix. The cell esds are taken
into account individually in the estimation of esds in distances, angles
and torsion angles; correlations between esds in cell parameters are only
used when they are defined by crystal symmetry. An approximate (isotropic)
treatment of cell esds is used for estimating esds involving l.s. planes.
;

loop_
_geom_bond_atom_site_label_1
_geom_bond_atom_site_label_2
_geom_bond_distance
_geom_bond_site_symmetry_2
_geom_bond_publ_flag
In1 O5 2.111(3) 3_665 ?
In1 O5 2.111(3) . ?
In1 O4 2.123(7) . ?
In1 O7 2.189(9) . ?
In1 O6 2.189(5) 19_665 ?
In1 O6 2.189(5) . ?
In2 O4 2.091(7) . ?
In2 O4 2.091(7) 13_666 ?
In2 O8 2.165(5) 7_556 ?
In2 O8 2.165(5) 19_665 ?
In2 O8 2.165(5) 13_666 ?
In2 O8 2.165(5) . ?
In3 O2 2.0502(9) . ?
In3 O1 2.111(10) . ?
In3 O3 2.180(5) . ?
In3 O3 2.180(5) 10_666 ?
In3 O3 2.180(5) 19_665 ?
In3 O3 2.180(5) 16_557 ?
O2 In3 2.0502(9) 3_765 ?
O2 In3 2.0502(9) 2_645 ?
O3 C1 1.254(7) . ?
O5 In1 2.111(3) 2_655 ?
O6 C2 1.258(9) 13_666 ?
O8 C2 1.256(9) . ?
C1 O3 1.254(7) 21_545 ?
C1 C3 1.531(14) . ?
C2 O6 1.258(9) 13_666 ?
C2 C5 1.495(10) . ?
C3 C6 1.394(9) . ?
C3 C6 1.394(9) 21_545 ?
C4 C5 1.415(9) . ?
C4 C5 1.415(9) 20_655 ?
C5 C6 1.388(10) 7_656 ?
C6 C5 1.388(10) 7_546 ?

loop_
_geom_angle_atom_site_label_1
_geom_angle_atom_site_label_2
_geom_angle_atom_site_label_3
_geom_angle
_geom_angle_site_symmetry_1
_geom_angle_site_symmetry_3
_geom_angle_publ_flag
O5 In1 O5 97.2(4) 3_665 . ?
O5 In1 O4 95.4(3) 3_665 . ?
O5 In1 O4 95.4(3) . . ?
O5 In1 O7 90.0(3) 3_665 . ?
O5 In1 O7 90.0(3) . . ?
O4 In1 O7 171.7(3) . . ?
O5 In1 O6 87.0(3) 3_665 19_665 ?
O5 In1 O6 171.8(3) . 19_665 ?
O4 In1 O6 91.2(2) . 19_665 ?
O7 In1 O6 82.9(3) . 19_665 ?
O5 In1 O6 171.8(3) 3_665 . ?
O5 In1 O6 87.0(3) . . ?
O4 In1 O6 91.2(2) . . ?
O7 In1 O6 82.9(3) . . ?
O6 In1 O6 88.0(4) 19_665 . ?
O4 In2 O4 180.0(4) . 13_666 ?
O4 In2 O8 91.9(2) . 7_556 ?
O4 In2 O8 88.1(2) 13_666 7_556 ?
O4 In2 O8 88.1(2) . 19_665 ?
O4 In2 O8 91.9(2) 13_666 19_665 ?
O8 In2 O8 180.0(3) 7_556 19_665 ?
O4 In2 O8 91.9(2) . 13_666 ?
O4 In2 O8 88.1(2) 13_666 13_666 ?
O8 In2 O8 89.4(4) 7_556 13_666 ?
O8 In2 O8 90.6(4) 19_665 13_666 ?
O4 In2 O8 88.1(2) . . ?
O4 In2 O8 91.9(2) 13_666 . ?
O8 In2 O8 90.6(4) 7_556 . ?
O8 In2 O8 89.4(4) 19_665 . ?
O8 In2 O8 180.000(1) 13_666 . ?
O2 In3 O1 180.00(3) . . ?
O2 In3 O3 93.67(15) . . ?
O1 In3 O3 86.33(15) . . ?
O2 In3 O3 93.67(15) . 10_666 ?
O1 In3 O3 86.33(15) . 10_666 ?
O3 In3 O3 172.7(3) . 10_666 ?
O2 In3 O3 93.67(15) . 19_665 ?
O1 In3 O3 86.33(15) . 19_665 ?
O3 In3 O3 90.0(3) . 19_665 ?
O3 In3 O3 89.6(3) 10_666 19_665 ?
O2 In3 O3 93.67(15) . 16_557 ?
O1 In3 O3 86.33(15) . 16_557 ?
O3 In3 O3 89.6(3) . 16_557 ?
O3 In3 O3 90.0(3) 10_666 16_557 ?
O3 In3 O3 172.7(3) 19_665 16_557 ?
In3 O2 In3 120.0 3_765 2_645 ?
In3 O2 In3 120.0 3_765 . ?
In3 O2 In3 120.0 2_645 . ?
C1 O3 In3 133.1(5) . . ?
In2 O4 In1 121.1(4) . . ?
In1 O5 In1 142.7(4) . 2_655 ?
C2 O6 In1 135.8(5) 13_666 . ?
C2 O8 In2 136.0(5) . . ?
O3 C1 O3 127.7(9) 21_545 . ?
O3 C1 C3 116.2(5) 21_545 . ?
O3 C1 C3 116.2(5) . . ?
O8 C2 O6 126.3(7) . 13_666 ?
O8 C2 C5 117.5(7) . . ?
O6 C2 C5 116.2(6) 13_666 . ?
C6 C3 C6 120.2(9) . 21_545 ?
C6 C3 C1 119.8(5) . . ?
C6 C3 C1 119.8(5) 21_545 . ?
C5 C4 C5 120.1(9) . 20_655 ?
C6 C5 C4 119.2(7) 7_656 . ?
C6 C5 C2 121.6(7) 7_656 . ?
C4 C5 C2 119.2(7) . . ?
C5 C6 C3 120.6(7) 7_546 . ?

_diffrn_measured_fraction_theta_max 1.000
_diffrn_reflns_theta_full        25.00
_diffrn_measured_fraction_theta_full 1.000
_refine_diff_density_max         1.676
_refine_diff_density_min         -0.817
_refine_diff_density_rms         0.202
