####################################################################### 
# 
# This file contains crystal structure data downloaded from the 
# Cambridge Structural Database (CSD) hosted by the Cambridge 
# Crystallographic Data Centre (CCDC).
# 
# Full information about CCDC data access policies and citation 
# guidelines are available at http://www.ccdc.cam.ac.uk/access/V1 
# 
# Audit and citation data items may have been added by the CCDC. 
# Please retain this information to preserve the provenance of 
# this file and to allow appropriate attribution of the data. 
# 
#######################################################################

data_uhouston02
_audit_block_doi                 10.5517/ccz98wd
_database_code_depnum_ccdc_archive 'CCDC 902654'
loop_
_citation_id
_citation_doi
_citation_year
1 10.1039/C3CC41564C 2013
_audit_update_record             
;
2012-09-22 deposited with the CCDC.	2021-12-14 downloaded from the CCDC.
;
#TrackingRef '14166_web_deposit_cif_file_0_OgnjenMiljanic_1348324928.MOFF-1.cif'


_audit_creation_method           SHELXL-97
_chemical_name_systematic        
;
uhouston02
;
_chemical_name_common            CTHMOF238
_chemical_melting_point          ?
_chemical_formula_moiety         ?
_chemical_formula_sum            'C32 H16 Cu2 F16 O12'
_chemical_formula_weight         1023.53

loop_
_atom_type_symbol
_atom_type_description
_atom_type_scat_dispersion_real
_atom_type_scat_dispersion_imag
_atom_type_scat_source
C C 0.0033 0.0016 'International Tables Vol C Tables 4.2.6.8 and 6.1.1.4'
H H 0.0000 0.0000 'International Tables Vol C Tables 4.2.6.8 and 6.1.1.4'
O O 0.0106 0.0060 'International Tables Vol C Tables 4.2.6.8 and 6.1.1.4'
F F 0.0171 0.0103 'International Tables Vol C Tables 4.2.6.8 and 6.1.1.4'
Cu Cu 0.3201 1.2651 'International Tables Vol C Tables 4.2.6.8 and 6.1.1.4'

_symmetry_cell_setting           Monoclinic
_symmetry_space_group_name_H-M   P2/c

loop_
_symmetry_equiv_pos_as_xyz
'x, y, z'
'-x, y, -z+1/2'
'-x, -y, -z'
'x, -y, z-1/2'

_cell_length_a                   16.7149(9)
_cell_length_b                   15.1584(8)
_cell_length_c                   15.9373(8)
_cell_angle_alpha                90.00
_cell_angle_beta                 112.098(2)
_cell_angle_gamma                90.00
_cell_volume                     3741.4(3)
_cell_formula_units_Z            4
_cell_measurement_temperature    100(2)
_cell_measurement_reflns_used    9978
_cell_measurement_theta_min      2.63
_cell_measurement_theta_max      25.38

_exptl_crystal_description       plate
_exptl_crystal_colour            blue
_exptl_crystal_size_max          0.10
_exptl_crystal_size_mid          0.10
_exptl_crystal_size_min          0.04
_exptl_crystal_density_meas      ?
_exptl_crystal_density_diffrn    1.817
_exptl_crystal_density_method    'not measured'
_exptl_crystal_F_000             2024
_exptl_absorpt_coefficient_mu    1.278
_exptl_absorpt_correction_type   multi-scan
_exptl_absorpt_correction_T_min  0.8829
_exptl_absorpt_correction_T_max  0.9507
_exptl_absorpt_process_details   SADABS

_diffrn_refln_scan_width         0.5
_diffrn_refln_scan_rate          10
_space_group.centring_type       primitive
_space_group.IT_number           13

_exptl_special_details           
;
?
;

_diffrn_ambient_temperature      100(2)
_diffrn_radiation_wavelength     0.71073
_diffrn_radiation_type           MoK\a
_diffrn_radiation_source         'microfocus sealed tube'
_diffrn_radiation_monochromator  'QUAZAR multilayer mirrors'
_diffrn_measurement_device_type  'Bruker APEX-II CCD'
_diffrn_measurement_method       'phi and omega scans'
_diffrn_detector_area_resol_mean 8.366
_diffrn_reflns_number            27288
_diffrn_reflns_av_R_equivalents  0.0272
_diffrn_reflns_av_sigmaI/netI    0.0263
_diffrn_reflns_limit_h_min       -20
_diffrn_reflns_limit_h_max       20
_diffrn_reflns_limit_k_min       -18
_diffrn_reflns_limit_k_max       18
_diffrn_reflns_limit_l_min       -18
_diffrn_reflns_limit_l_max       19
_diffrn_reflns_theta_min         1.31
_diffrn_reflns_theta_max         25.39
_reflns_number_total             6865
_reflns_number_gt                5766
_reflns_threshold_expression     >2sigma(I)

_computing_data_collection       'Bruker APEX2'
_computing_cell_refinement       'Bruker SAINT'
_computing_data_reduction        'Bruker SAINT'
_computing_structure_solution    SIR-2011
_computing_structure_refinement  SHELXL-97
_computing_molecular_graphics    ORTEP-32
_computing_publication_material  WinGX

_refine_special_details          
;
Refinement of F^2^ against ALL reflections. The weighted R-factor wR and
goodness of fit S are based on F^2^, conventional R-factors R are based
on F, with F set to zero for negative F^2^. The threshold expression of
F^2^ > 2sigma(F^2^) is used only for calculating R-factors(gt) etc. and is
not relevant to the choice of reflections for refinement. R-factors based
on F^2^ are statistically about twice as large as those based on F, and R-
factors based on ALL data will be even larger.
;

_refine_ls_structure_factor_coef Fsqd
_refine_ls_matrix_type           full
_refine_ls_weighting_scheme      calc
_refine_ls_weighting_details     
'calc w=1/[\s^2^(Fo^2^)+(0.0451P)^2^+8.9058P] where P=(Fo^2^+2Fc^2^)/3'
_atom_sites_solution_primary     direct
_atom_sites_solution_secondary   difmap
_atom_sites_solution_hydrogens   geom
_refine_ls_hydrogen_treatment    constr
_refine_ls_extinction_method     none
_refine_ls_extinction_coef       ?
_refine_ls_number_reflns         6865
_refine_ls_number_parameters     573
_refine_ls_number_restraints     0
_refine_ls_R_factor_all          0.0488
_refine_ls_R_factor_gt           0.0394
_refine_ls_wR_factor_ref         0.1110
_refine_ls_wR_factor_gt          0.1050
_refine_ls_goodness_of_fit_ref   1.091
_refine_ls_restrained_S_all      1.091
_refine_ls_shift/su_max          0.000
_refine_ls_shift/su_mean         0.000

loop_
_atom_site_label
_atom_site_type_symbol
_atom_site_fract_x
_atom_site_fract_y
_atom_site_fract_z
_atom_site_U_iso_or_equiv
_atom_site_adp_type
_atom_site_occupancy
_atom_site_symmetry_multiplicity
_atom_site_calc_flag
_atom_site_refinement_flags
_atom_site_disorder_assembly
_atom_site_disorder_group
C1 C 0.9111(2) 0.1844(2) 1.0850(2) 0.0201(7) Uani 1 1 d . . .
C2 C 0.8620(2) 0.2029(2) 0.9860(2) 0.0206(7) Uani 1 1 d . . .
C3 C 0.8744(2) 0.2812(2) 0.9489(2) 0.0211(7) Uani 1 1 d . . .
C4 C 0.8327(2) 0.2994(2) 0.8582(2) 0.0204(7) Uani 1 1 d . . .
C5 C 0.7756(2) 0.2393(2) 0.8001(2) 0.0197(7) Uani 1 1 d . . .
C6 C 0.7620(2) 0.1612(2) 0.8382(2) 0.0205(7) Uani 1 1 d . . .
C7 C 0.8043(2) 0.1436(2) 0.9292(2) 0.0221(7) Uani 1 1 d . . .
C8 C 0.7308(2) 0.2573(2) 0.7021(2) 0.0199(7) Uani 1 1 d . . .
C9 C 0.6832(2) 0.3338(2) 0.6698(2) 0.0202(7) Uani 1 1 d . . .
C10 C 0.6389(2) 0.3475(2) 0.5785(2) 0.0214(7) Uani 1 1 d . . .
C11 C 0.6413(2) 0.2871(2) 0.5146(2) 0.0198(7) Uani 1 1 d . . .
C12 C 0.6900(2) 0.2115(2) 0.5465(2) 0.0216(7) Uani 1 1 d . . .
C13 C 0.7336(2) 0.1970(2) 0.6375(2) 0.0212(7) Uani 1 1 d . . .
C14 C 0.5902(2) 0.3003(2) 0.4147(2) 0.0198(7) Uani 1 1 d . . .
C15 C 1.0000 0.3419(3) 1.2500 0.0171(10) Uani 1 2 d S . .
C16 C 1.0000 0.4416(3) 1.2500 0.0189(10) Uani 1 2 d S . .
C17 C 1.0699(2) 0.4886(2) 1.3074(2) 0.0193(7) Uani 1 1 d . . .
C18 C 1.0698(2) 0.5794(2) 1.3074(2) 0.0196(7) Uani 1 1 d . . .
C19 C 1.0000 0.6278(3) 1.2500 0.0180(10) Uani 1 2 d S . .
C20 C 1.0000 0.7255(3) 1.2500 0.0184(10) Uani 1 2 d S . .
C21 C 1.0165(2) 0.7733(2) 1.3288(2) 0.0204(7) Uani 1 1 d . . .
C22 C 1.0156(2) 0.8644(2) 1.3289(2) 0.0218(7) Uani 1 1 d . . .
C23 C 1.0000 0.9116(3) 1.2500 0.0202(10) Uani 1 2 d S . .
C24 C 1.0000 1.0106(3) 1.2500 0.0185(10) Uani 1 2 d S . .
C25 C 1.1829(5) 0.1349(6) 1.1241(5) 0.103(3) Uani 1 1 d . . .
H25A H 1.1285 0.1030 1.0948 0.155 Uiso 1 1 calc R . .
H25B H 1.2313 0.0934 1.1398 0.155 Uiso 1 1 calc R . .
H25C H 1.1889 0.1798 1.0826 0.155 Uiso 1 1 calc R . .
C26 C 0.5000 0.4709(3) 0.2500 0.0197(10) Uani 1 2 d S . .
C27 C 0.5000 0.5701(3) 0.2500 0.0202(10) Uani 1 2 d S . .
C28 C 0.4417(2) 0.6176(2) 0.1792(2) 0.0224(7) Uani 1 1 d . . .
C29 C 0.4415(2) 0.7086(2) 0.1792(2) 0.0206(7) Uani 1 1 d . . .
C30 C 0.5000 0.7565(3) 0.2500 0.0191(10) Uani 1 2 d S . .
C31 C 0.5000 0.1405(3) 0.2500 0.0206(10) Uani 1 2 d S . .
C32 C 0.5000 0.0408(3) 0.2500 0.0201(10) Uani 1 2 d S . .
C33 C 0.5014(2) -0.0067(2) 0.1764(2) 0.0224(7) Uani 1 1 d . . .
C34 C 0.5031(2) -0.0973(2) 0.1772(2) 0.0211(7) Uani 1 1 d . . .
C35 C 0.5000 -0.1463(3) 0.2500 0.0200(10) Uani 1 2 d S . .
C36 C 0.3245(3) 0.3345(4) 0.3916(3) 0.0499(13) Uani 1 1 d . . .
H36A H 0.3734 0.3042 0.4373 0.075 Uiso 1 1 calc R . .
H36B H 0.2709 0.3174 0.3988 0.075 Uiso 1 1 calc R . .
H36C H 0.3325 0.3985 0.3995 0.075 Uiso 1 1 calc R . .
C37 C 0.8233(4) 0.5839(4) 0.9011(3) 0.0590(14) Uani 1 1 d . . .
H37A H 0.8776 0.5529 0.9337 0.089 Uiso 1 1 calc R . .
H37B H 0.7747 0.5476 0.9011 0.089 Uiso 1 1 calc R . .
H37C H 0.8229 0.6403 0.9311 0.089 Uiso 1 1 calc R . .
C38 C 0.6798(4) 0.9274(4) 0.5896(4) 0.0717(17) Uani 1 1 d . . .
H38A H 0.6356 0.9726 0.5627 0.108 Uiso 1 1 calc R . .
H38B H 0.6654 0.8744 0.5516 0.108 Uiso 1 1 calc R . .
H38C H 0.7361 0.9499 0.5938 0.108 Uiso 1 1 calc R . .
O1 O 0.99097(16) 0.17676(17) 1.10755(15) 0.0259(6) Uani 1 1 d . . .
O2 O 0.86860(16) 0.18098(16) 1.13450(15) 0.0240(5) Uani 1 1 d . . .
O3 O 0.63142(15) 0.29223(15) 0.36362(15) 0.0212(5) Uani 1 1 d . . .
O4 O 0.51155(15) 0.31587(16) 0.39323(15) 0.0228(5) Uani 1 1 d . . .
O5 O 1.05937(16) 0.30491(15) 1.23358(17) 0.0252(6) Uani 1 1 d . . .
O6 O 1.18302(16) 0.17537(16) 1.20231(17) 0.0257(5) Uani 1 1 d . . .
H6 H 1.2281 0.1613 1.2462 0.039 Uiso 1 1 calc R . .
O7 O 1.06198(16) 1.04620(15) 1.23823(16) 0.0246(5) Uani 1 1 d . . .
O8 O 0.43351(15) 0.43509(15) 0.25161(16) 0.0226(5) Uani 1 1 d . . .
O9 O 0.44718(16) 0.17765(15) 0.27717(16) 0.0237(5) Uani 1 1 d . . .
O10 O 0.31978(17) 0.31058(16) 0.30373(16) 0.0254(5) Uani 1 1 d . . .
H10 H 0.2746 0.3317 0.2647 0.038 Uiso 1 1 calc R . .
O11 O 0.81539(19) 0.5995(2) 0.8110(2) 0.0420(7) Uani 1 1 d . . .
H11 H 0.8578 0.6293 0.8111 0.063 Uiso 1 1 calc R . .
O12 O 0.6830(2) 0.9057(3) 0.6791(3) 0.0636(10) Uani 1 1 d . . .
H12 H 0.6347 0.8862 0.6755 0.095 Uiso 1 1 calc R . .
F1 F 0.92894(13) 0.34220(13) 1.00182(13) 0.0275(5) Uani 1 1 d . . .
F2 F 0.84998(13) 0.37549(13) 0.82521(13) 0.0271(5) Uani 1 1 d . . .
F3 F 0.70486(13) 0.10226(14) 0.78667(13) 0.0278(5) Uani 1 1 d . . .
F4 F 0.78901(14) 0.06641(13) 0.96216(13) 0.0300(5) Uani 1 1 d . . .
F5 F 0.67885(13) 0.39490(14) 0.72857(12) 0.0275(5) Uani 1 1 d . . .
F6 F 0.59399(14) 0.42328(13) 0.55224(13) 0.0309(5) Uani 1 1 d . . .
F7 F 0.69263(15) 0.14878(14) 0.48796(13) 0.0307(5) Uani 1 1 d . . .
F8 F 0.78137(14) 0.12359(14) 0.66419(13) 0.0296(5) Uani 1 1 d . . .
F9 F 1.13923(13) 0.44621(12) 1.36505(13) 0.0254(4) Uani 1 1 d . . .
F10 F 1.14039(12) 0.62190(12) 1.36346(13) 0.0246(4) Uani 1 1 d . . .
F11 F 1.03280(14) 0.73061(12) 1.40779(13) 0.0258(5) Uani 1 1 d . . .
F12 F 1.03131(15) 0.90719(13) 1.40685(13) 0.0307(5) Uani 1 1 d . . .
F13 F 0.38269(14) 0.57489(13) 0.10949(13) 0.0291(5) Uani 1 1 d . . .
F14 F 0.38114(13) 0.75118(12) 0.11005(13) 0.0258(5) Uani 1 1 d . . .
F15 F 0.50090(15) 0.03518(13) 0.10208(13) 0.0306(5) Uani 1 1 d . . .
F16 F 0.50920(14) -0.13994(13) 0.10596(14) 0.0287(5) Uani 1 1 d . . .
Cu1 Cu 1.07248(3) 0.17474(2) 1.23345(2) 0.01560(11) Uani 1 1 d . . .
Cu2 Cu 0.42856(3) 0.30722(2) 0.26785(2) 0.01554(11) Uani 1 1 d . . .

loop_
_atom_site_aniso_label
_atom_site_aniso_U_11
_atom_site_aniso_U_22
_atom_site_aniso_U_33
_atom_site_aniso_U_23
_atom_site_aniso_U_13
_atom_site_aniso_U_12
C1 0.029(2) 0.0127(16) 0.0136(17) 0.0014(13) 0.0025(15) 0.0025(14)
C2 0.0246(18) 0.0231(18) 0.0117(16) 0.0008(13) 0.0044(14) 0.0049(14)
C3 0.0258(18) 0.0201(17) 0.0138(16) -0.0033(13) 0.0034(14) -0.0018(14)
C4 0.0245(18) 0.0195(17) 0.0155(17) 0.0022(13) 0.0056(14) 0.0009(14)
C5 0.0206(17) 0.0254(18) 0.0113(16) 0.0024(13) 0.0039(14) 0.0053(14)
C6 0.0233(18) 0.0203(17) 0.0147(16) -0.0019(13) 0.0034(14) 0.0009(14)
C7 0.0275(19) 0.0227(18) 0.0143(16) 0.0022(14) 0.0056(14) 0.0006(14)
C8 0.0192(17) 0.0251(18) 0.0128(16) 0.0031(14) 0.0031(14) -0.0005(14)
C9 0.0238(18) 0.0230(18) 0.0131(16) -0.0026(13) 0.0063(14) 0.0006(14)
C10 0.0264(18) 0.0183(17) 0.0169(17) 0.0023(13) 0.0051(14) 0.0048(14)
C11 0.0222(17) 0.0224(18) 0.0119(16) 0.0023(13) 0.0033(14) 0.0005(14)
C12 0.0268(18) 0.0216(18) 0.0138(16) -0.0022(14) 0.0048(14) 0.0023(14)
C13 0.0237(18) 0.0206(17) 0.0165(17) 0.0051(14) 0.0043(14) 0.0072(14)
C14 0.0294(19) 0.0134(16) 0.0121(16) 0.0012(13) 0.0026(15) 0.0009(14)
C15 0.025(3) 0.011(2) 0.011(2) 0.000 0.0022(19) 0.000
C16 0.028(3) 0.011(2) 0.019(2) 0.000 0.011(2) 0.000
C17 0.0254(18) 0.0132(16) 0.0178(17) 0.0028(13) 0.0065(14) 0.0033(13)
C18 0.0246(18) 0.0140(16) 0.0193(17) -0.0011(13) 0.0073(15) -0.0032(13)
C19 0.025(2) 0.011(2) 0.019(2) 0.000 0.010(2) 0.000
C20 0.023(2) 0.010(2) 0.020(2) 0.000 0.006(2) 0.000
C21 0.0267(18) 0.0144(16) 0.0178(17) 0.0033(13) 0.0055(14) 0.0015(14)
C22 0.0315(19) 0.0143(17) 0.0163(17) -0.0023(13) 0.0052(15) -0.0008(14)
C23 0.026(3) 0.008(2) 0.023(2) 0.000 0.005(2) 0.000
C24 0.032(3) 0.006(2) 0.012(2) 0.000 0.001(2) 0.000
C25 0.087(5) 0.165(8) 0.087(5) -0.058(5) 0.066(4) -0.024(5)
C26 0.028(3) 0.015(2) 0.011(2) 0.000 0.002(2) 0.000
C27 0.027(3) 0.012(2) 0.021(2) 0.000 0.009(2) 0.000
C28 0.0281(19) 0.0168(17) 0.0192(17) -0.0036(14) 0.0053(15) -0.0049(14)
C29 0.0258(18) 0.0145(16) 0.0204(18) 0.0045(13) 0.0074(15) 0.0024(14)
C30 0.023(2) 0.012(2) 0.022(2) 0.000 0.008(2) 0.000
C31 0.029(3) 0.014(2) 0.015(2) 0.000 0.004(2) 0.000
C32 0.023(2) 0.013(2) 0.022(2) 0.000 0.006(2) 0.000
C33 0.0306(19) 0.0160(17) 0.0199(17) 0.0022(14) 0.0088(15) -0.0007(14)
C34 0.0260(18) 0.0161(17) 0.0205(17) -0.0035(14) 0.0079(15) -0.0022(14)
C35 0.021(2) 0.015(2) 0.023(2) 0.000 0.007(2) 0.000
C36 0.044(3) 0.081(4) 0.030(2) -0.008(2) 0.019(2) 0.009(2)
C37 0.066(3) 0.068(4) 0.044(3) 0.014(3) 0.022(3) 0.019(3)
C38 0.068(4) 0.085(4) 0.067(4) 0.021(3) 0.031(3) 0.009(3)
O1 0.0285(14) 0.0331(14) 0.0117(12) 0.0011(10) 0.0026(10) 0.0049(11)
O2 0.0292(14) 0.0289(14) 0.0108(11) 0.0012(10) 0.0040(10) -0.0008(11)
O3 0.0281(13) 0.0213(12) 0.0115(11) 0.0014(9) 0.0045(10) 0.0010(10)
O4 0.0247(13) 0.0277(13) 0.0120(11) -0.0007(10) 0.0020(10) 0.0040(10)
O5 0.0340(14) 0.0102(11) 0.0350(15) -0.0004(10) 0.0171(12) 0.0011(10)
O6 0.0292(14) 0.0252(13) 0.0230(13) -0.0030(11) 0.0103(11) 0.0001(11)
O7 0.0323(14) 0.0096(11) 0.0301(14) -0.0003(10) 0.0098(11) -0.0007(10)
O8 0.0291(14) 0.0133(12) 0.0229(13) 0.0005(10) 0.0069(11) 0.0008(10)
O9 0.0345(14) 0.0136(12) 0.0245(13) 0.0015(10) 0.0128(11) 0.0011(10)
O10 0.0307(14) 0.0255(14) 0.0208(13) -0.0011(10) 0.0106(11) 0.0025(11)
O11 0.0395(17) 0.0430(18) 0.0444(18) 0.0107(14) 0.0168(14) 0.0000(14)
O12 0.054(2) 0.066(2) 0.070(2) 0.021(2) 0.0238(19) 0.0035(19)
F1 0.0346(12) 0.0251(11) 0.0146(10) -0.0021(8) 0.0000(9) -0.0070(9)
F2 0.0347(12) 0.0264(11) 0.0161(10) 0.0057(8) 0.0048(9) -0.0048(9)
F3 0.0327(12) 0.0287(11) 0.0148(10) -0.0017(8) 0.0006(9) -0.0080(9)
F4 0.0455(13) 0.0199(11) 0.0183(10) 0.0034(8) 0.0047(9) -0.0069(9)
F5 0.0364(12) 0.0300(11) 0.0133(10) -0.0043(8) 0.0063(9) 0.0084(9)
F6 0.0429(13) 0.0250(11) 0.0169(10) 0.0018(8) 0.0024(9) 0.0125(10)
F7 0.0493(14) 0.0253(11) 0.0140(10) -0.0006(8) 0.0078(9) 0.0120(10)
F8 0.0373(12) 0.0304(12) 0.0162(10) 0.0050(9) 0.0045(9) 0.0144(9)
F9 0.0276(11) 0.0146(10) 0.0269(11) 0.0032(8) 0.0023(9) 0.0045(8)
F10 0.0250(11) 0.0161(10) 0.0261(11) -0.0014(8) 0.0020(9) -0.0045(8)
F11 0.0430(13) 0.0147(10) 0.0184(10) 0.0030(8) 0.0100(9) 0.0006(9)
F12 0.0544(14) 0.0135(10) 0.0194(10) -0.0033(8) 0.0086(10) 0.0010(9)
F13 0.0367(12) 0.0164(10) 0.0232(11) -0.0009(8) -0.0014(9) -0.0046(9)
F14 0.0298(11) 0.0151(10) 0.0251(11) 0.0043(8) 0.0017(9) 0.0020(8)
F15 0.0549(14) 0.0170(10) 0.0221(11) 0.0009(8) 0.0171(10) -0.0054(10)
F16 0.0483(13) 0.0171(10) 0.0256(11) -0.0052(8) 0.0195(10) -0.0027(9)
Cu1 0.0240(2) 0.0093(2) 0.0105(2) 0.00000(14) 0.00293(16) 0.00100(15)
Cu2 0.0227(2) 0.0111(2) 0.0098(2) 0.00024(14) 0.00282(16) 0.00035(15)

_geom_special_details            
;
All esds (except the esd in the dihedral angle between two l.s. planes)
are estimated using the full covariance matrix. The cell esds are taken
into account individually in the estimation of esds in distances, angles
and torsion angles; correlations between esds in cell parameters are only
used when they are defined by crystal symmetry. An approximate (isotropic)
treatment of cell esds is used for estimating esds involving l.s. planes.
;

loop_
_geom_bond_atom_site_label_1
_geom_bond_atom_site_label_2
_geom_bond_distance
_geom_bond_site_symmetry_2
_geom_bond_publ_flag
C1 O2 1.245(4) . ?
C1 O1 1.250(4) . ?
C1 C2 1.507(4) . ?
C2 C3 1.376(5) . ?
C2 C7 1.379(5) . ?
C3 F1 1.348(4) . ?
C3 C4 1.375(5) . ?
C4 F2 1.344(4) . ?
C4 C5 1.390(5) . ?
C5 C6 1.389(5) . ?
C5 C8 1.482(5) . ?
C6 F3 1.340(4) . ?
C6 C7 1.379(5) . ?
C7 F4 1.346(4) . ?
C8 C13 1.390(5) . ?
C8 C9 1.391(5) . ?
C9 F5 1.339(4) . ?
C9 C10 1.377(5) . ?
C10 F6 1.349(4) . ?
C10 C11 1.381(5) . ?
C11 C12 1.387(5) . ?
C11 C14 1.509(4) . ?
C12 F7 1.345(4) . ?
C12 C13 1.374(5) . ?
C13 F8 1.342(4) . ?
C14 O4 1.251(4) . ?
C14 O3 1.254(4) . ?
C15 O5 1.250(3) 2_757 ?
C15 O5 1.250(3) . ?
C15 C16 1.512(6) . ?
C16 C17 1.380(4) . ?
C16 C17 1.380(4) 2_757 ?
C17 F9 1.341(4) . ?
C17 C18 1.377(5) . ?
C18 F10 1.346(4) . ?
C18 C19 1.389(4) . ?
C19 C18 1.389(4) 2_757 ?
C19 C20 1.481(6) . ?
C20 C21 1.385(4) . ?
C20 C21 1.385(4) 2_757 ?
C21 F11 1.349(4) . ?
C21 C22 1.381(5) . ?
C22 F12 1.337(4) . ?
C22 C23 1.384(4) . ?
C23 C22 1.384(4) 2_757 ?
C23 C24 1.500(6) . ?
C24 O7 1.243(3) . ?
C24 O7 1.243(3) 2_757 ?
C25 O6 1.388(6) . ?
C25 H25A 0.9800 . ?
C25 H25B 0.9800 . ?
C25 H25C 0.9800 . ?
C26 O8 1.246(3) . ?
C26 O8 1.246(3) 2_655 ?
C26 C27 1.503(6) . ?
C27 C28 1.384(4) 2_655 ?
C27 C28 1.384(4) . ?
C28 F13 1.342(4) . ?
C28 C29 1.380(5) . ?
C29 F14 1.346(4) . ?
C29 C30 1.387(4) . ?
C30 C29 1.387(4) 2_655 ?
C30 C35 1.474(6) 1_565 ?
C31 O9 1.254(3) 2_655 ?
C31 O9 1.254(3) . ?
C31 C32 1.510(6) . ?
C32 C33 1.384(4) . ?
C32 C33 1.384(4) 2_655 ?
C33 F15 1.341(4) . ?
C33 C34 1.374(5) . ?
C34 F16 1.343(4) . ?
C34 C35 1.394(4) . ?
C35 C34 1.394(4) 2_655 ?
C35 C30 1.474(6) 1_545 ?
C36 O10 1.420(5) . ?
C36 H36A 0.9800 . ?
C36 H36B 0.9800 . ?
C36 H36C 0.9800 . ?
C37 O11 1.412(5) . ?
C37 H37A 0.9800 . ?
C37 H37B 0.9800 . ?
C37 H37C 0.9800 . ?
C38 O12 1.446(6) . ?
C38 H38A 0.9800 . ?
C38 H38B 0.9800 . ?
C38 H38C 0.9800 . ?
O1 Cu1 1.956(2) . ?
O2 Cu1 1.962(2) 2_757 ?
O3 Cu2 1.966(2) 2_655 ?
O4 Cu2 1.962(2) . ?
O5 Cu1 1.985(2) . ?
O6 H6 0.8400 . ?
O7 Cu1 1.960(2) 1_565 ?
O8 Cu2 1.961(2) . ?
O9 Cu2 1.985(2) . ?
O10 H10 0.8400 . ?
O11 H11 0.8400 . ?
O12 H12 0.8400 . ?
Cu1 O7 1.960(2) 1_545 ?
Cu1 O2 1.962(2) 2_757 ?
Cu1 Cu1 2.6664(8) 2_757 ?
Cu2 O3 1.966(2) 2_655 ?
Cu2 Cu2 2.6551(8) 2_655 ?

loop_
_geom_angle_atom_site_label_1
_geom_angle_atom_site_label_2
_geom_angle_atom_site_label_3
_geom_angle
_geom_angle_site_symmetry_1
_geom_angle_site_symmetry_3
_geom_angle_publ_flag
O2 C1 O1 128.1(3) . . ?
O2 C1 C2 117.1(3) . . ?
O1 C1 C2 114.8(3) . . ?
C3 C2 C7 117.5(3) . . ?
C3 C2 C1 120.0(3) . . ?
C7 C2 C1 122.5(3) . . ?
F1 C3 C4 118.5(3) . . ?
F1 C3 C2 119.9(3) . . ?
C4 C3 C2 121.7(3) . . ?
F2 C4 C3 119.0(3) . . ?
F2 C4 C5 119.7(3) . . ?
C3 C4 C5 121.2(3) . . ?
C6 C5 C4 116.9(3) . . ?
C6 C5 C8 121.1(3) . . ?
C4 C5 C8 122.0(3) . . ?
F3 C6 C7 118.8(3) . . ?
F3 C6 C5 119.8(3) . . ?
C7 C6 C5 121.4(3) . . ?
F4 C7 C6 118.8(3) . . ?
F4 C7 C2 120.0(3) . . ?
C6 C7 C2 121.3(3) . . ?
C13 C8 C9 116.6(3) . . ?
C13 C8 C5 121.0(3) . . ?
C9 C8 C5 122.4(3) . . ?
F5 C9 C10 119.0(3) . . ?
F5 C9 C8 119.5(3) . . ?
C10 C9 C8 121.5(3) . . ?
F6 C10 C9 118.2(3) . . ?
F6 C10 C11 120.1(3) . . ?
C9 C10 C11 121.7(3) . . ?
C10 C11 C12 116.9(3) . . ?
C10 C11 C14 121.9(3) . . ?
C12 C11 C14 121.1(3) . . ?
F7 C12 C13 118.4(3) . . ?
F7 C12 C11 119.9(3) . . ?
C13 C12 C11 121.6(3) . . ?
F8 C13 C12 118.9(3) . . ?
F8 C13 C8 119.4(3) . . ?
C12 C13 C8 121.6(3) . . ?
O4 C14 O3 128.2(3) . . ?
O4 C14 C11 115.6(3) . . ?
O3 C14 C11 116.2(3) . . ?
O5 C15 O5 126.7(4) 2_757 . ?
O5 C15 C16 116.7(2) 2_757 . ?
O5 C15 C16 116.7(2) . . ?
C17 C16 C17 117.9(4) . 2_757 ?
C17 C16 C15 121.0(2) . . ?
C17 C16 C15 121.0(2) 2_757 . ?
F9 C17 C18 118.7(3) . . ?
F9 C17 C16 120.3(3) . . ?
C18 C17 C16 121.0(3) . . ?
F10 C18 C17 118.5(3) . . ?
F10 C18 C19 119.6(3) . . ?
C17 C18 C19 121.9(3) . . ?
C18 C19 C18 116.4(4) 2_757 . ?
C18 C19 C20 121.8(2) 2_757 . ?
C18 C19 C20 121.8(2) . . ?
C21 C20 C21 116.9(4) . 2_757 ?
C21 C20 C19 121.5(2) . . ?
C21 C20 C19 121.5(2) 2_757 . ?
F11 C21 C22 118.5(3) . . ?
F11 C21 C20 119.8(3) . . ?
C22 C21 C20 121.7(3) . . ?
F12 C22 C21 119.2(3) . . ?
F12 C22 C23 119.8(3) . . ?
C21 C22 C23 121.0(3) . . ?
C22 C23 C22 117.6(4) 2_757 . ?
C22 C23 C24 121.2(2) 2_757 . ?
C22 C23 C24 121.2(2) . . ?
O7 C24 O7 128.6(4) . 2_757 ?
O7 C24 C23 115.7(2) . . ?
O7 C24 C23 115.7(2) 2_757 . ?
O6 C25 H25A 109.5 . . ?
O6 C25 H25B 109.5 . . ?
H25A C25 H25B 109.5 . . ?
O6 C25 H25C 109.5 . . ?
H25A C25 H25C 109.5 . . ?
H25B C25 H25C 109.5 . . ?
O8 C26 O8 128.3(4) . 2_655 ?
O8 C26 C27 115.8(2) . . ?
O8 C26 C27 115.8(2) 2_655 . ?
C28 C27 C28 117.3(4) 2_655 . ?
C28 C27 C26 121.4(2) 2_655 . ?
C28 C27 C26 121.4(2) . . ?
F13 C28 C29 118.8(3) . . ?
F13 C28 C27 119.8(3) . . ?
C29 C28 C27 121.4(3) . . ?
F14 C29 C28 118.7(3) . . ?
F14 C29 C30 119.8(3) . . ?
C28 C29 C30 121.4(3) . . ?
C29 C30 C29 117.0(4) . 2_655 ?
C29 C30 C35 121.5(2) . 1_565 ?
C29 C30 C35 121.5(2) 2_655 1_565 ?
O9 C31 O9 126.6(4) 2_655 . ?
O9 C31 C32 116.7(2) 2_655 . ?
O9 C31 C32 116.7(2) . . ?
C33 C32 C33 117.3(4) . 2_655 ?
C33 C32 C31 121.4(2) . . ?
C33 C32 C31 121.4(2) 2_655 . ?
F15 C33 C34 118.3(3) . . ?
F15 C33 C32 120.4(3) . . ?
C34 C33 C32 121.3(3) . . ?
F16 C34 C33 118.7(3) . . ?
F16 C34 C35 119.1(3) . . ?
C33 C34 C35 122.2(3) . . ?
C34 C35 C34 115.7(4) 2_655 . ?
C34 C35 C30 122.2(2) 2_655 1_545 ?
C34 C35 C30 122.2(2) . 1_545 ?
O10 C36 H36A 109.5 . . ?
O10 C36 H36B 109.5 . . ?
H36A C36 H36B 109.5 . . ?
O10 C36 H36C 109.5 . . ?
H36A C36 H36C 109.5 . . ?
H36B C36 H36C 109.5 . . ?
O11 C37 H37A 109.5 . . ?
O11 C37 H37B 109.5 . . ?
H37A C37 H37B 109.5 . . ?
O11 C37 H37C 109.5 . . ?
H37A C37 H37C 109.5 . . ?
H37B C37 H37C 109.5 . . ?
O12 C38 H38A 109.5 . . ?
O12 C38 H38B 109.5 . . ?
H38A C38 H38B 109.5 . . ?
O12 C38 H38C 109.5 . . ?
H38A C38 H38C 109.5 . . ?
H38B C38 H38C 109.5 . . ?
C1 O1 Cu1 123.5(2) . . ?
C1 O2 Cu1 120.4(2) . 2_757 ?
C14 O3 Cu2 119.8(2) . 2_655 ?
C14 O4 Cu2 122.3(2) . . ?
C15 O5 Cu1 122.9(2) . . ?
C25 O6 H6 109.5 . . ?
C24 O7 Cu1 121.9(2) . 1_565 ?
C26 O8 Cu2 121.0(2) . . ?
C31 O9 Cu2 122.0(2) . . ?
C36 O10 H10 109.5 . . ?
C37 O11 H11 109.5 . . ?
C38 O12 H12 109.5 . . ?
O1 Cu1 O7 91.00(11) . 1_545 ?
O1 Cu1 O2 167.04(10) . 2_757 ?
O7 Cu1 O2 91.28(10) 1_545 2_757 ?
O1 Cu1 O5 87.19(11) . . ?
O7 Cu1 O5 167.48(10) 1_545 . ?
O2 Cu1 O5 87.83(10) 2_757 . ?
O1 Cu1 Cu1 82.47(8) . 2_757 ?
O7 Cu1 Cu1 83.74(7) 1_545 2_757 ?
O2 Cu1 Cu1 85.11(8) 2_757 2_757 ?
O5 Cu1 Cu1 83.74(7) . 2_757 ?
O8 Cu2 O4 91.13(10) . . ?
O8 Cu2 O3 90.20(10) . 2_655 ?
O4 Cu2 O3 167.10(10) . 2_655 ?
O8 Cu2 O9 166.98(10) . . ?
O4 Cu2 O9 87.65(10) . . ?
O3 Cu2 O9 88.17(10) 2_655 . ?
O8 Cu2 Cu2 83.44(7) . 2_655 ?
O4 Cu2 Cu2 82.53(7) . 2_655 ?
O3 Cu2 Cu2 84.88(7) 2_655 2_655 ?
O9 Cu2 Cu2 83.55(7) . 2_655 ?

_diffrn_measured_fraction_theta_max 0.995
_diffrn_reflns_theta_full        25.00
_diffrn_measured_fraction_theta_full 0.998
_refine_diff_density_max         0.846
_refine_diff_density_min         -0.808
_refine_diff_density_rms         0.090

_iucr_refine_instructions_details 
;
TITL uhouston02_0ma in P2/c
CELL 0.71073 16.7149 15.1584 15.9373 90.000 112.098 90.000
ZERR 4.00 0.0009 0.0008 0.0008 0.000 0.002 0.000
LATT 1
SYMM - X, Y, 1/2 - Z
SFAC C H O F CU
UNIT 128 64 48 64 8
MERG 2
FREE Cu1 O6
FREE Cu2 O10
FMAP 2
PLAN 25
SIZE 0.04 0.10 0.10
ACTA 50.00
BOND $H
LIST 4
WPDB -2
L.S. 8
TEMP -173.00
WGHT 0.045100 8.905800
FVAR 0.05142
C1 1 0.911110 0.184387 1.085040 11.00000 0.02927 0.01272 =
0.01359 0.00139 0.00253 0.00253
C2 1 0.861974 0.202937 0.985985 11.00000 0.02464 0.02314 =
0.01172 0.00080 0.00435 0.00487
C3 1 0.874426 0.281235 0.948869 11.00000 0.02579 0.02006 =
0.01381 -0.00326 0.00337 -0.00176
C4 1 0.832699 0.299408 0.858242 11.00000 0.02450 0.01950 =
0.01545 0.00223 0.00557 0.00088
C5 1 0.775634 0.239312 0.800109 11.00000 0.02061 0.02544 =
0.01129 0.00242 0.00387 0.00532
C6 1 0.761977 0.161182 0.838238 11.00000 0.02330 0.02026 =
0.01472 -0.00194 0.00336 0.00092
C7 1 0.804285 0.143565 0.929175 11.00000 0.02745 0.02267 =
0.01430 0.00220 0.00563 0.00064
C8 1 0.730790 0.257267 0.702077 11.00000 0.01916 0.02513 =
0.01279 0.00309 0.00311 -0.00052
C9 1 0.683222 0.333776 0.669779 11.00000 0.02378 0.02302 =
0.01310 -0.00255 0.00629 0.00056
C10 1 0.638910 0.347526 0.578516 11.00000 0.02636 0.01831 =
0.01694 0.00227 0.00513 0.00483
C11 1 0.641284 0.287144 0.514572 11.00000 0.02219 0.02241 =
0.01193 0.00234 0.00327 0.00050
C12 1 0.689985 0.211532 0.546487 11.00000 0.02679 0.02164 =
0.01381 -0.00216 0.00484 0.00234
C13 1 0.733621 0.197034 0.637476 11.00000 0.02370 0.02062 =
0.01651 0.00512 0.00426 0.00715
C14 1 0.590244 0.300257 0.414729 11.00000 0.02936 0.01336 =
0.01214 0.00121 0.00258 0.00089
C15 1 1.000000 0.341917 1.250000 10.50000 0.02510 0.01120 =
0.01104 0.00000 0.00216 0.00000
C16 1 1.000000 0.441648 1.250000 10.50000 0.02798 0.01139 =
0.01884 0.00000 0.01065 0.00000
C17 1 1.069885 0.488582 1.307392 11.00000 0.02543 0.01325 =
0.01779 0.00276 0.00652 0.00330
C18 1 1.069785 0.579439 1.307369 11.00000 0.02460 0.01403 =
0.01933 -0.00107 0.00732 -0.00320
C19 1 1.000000 0.627753 1.250000 10.50000 0.02480 0.01084 =
0.01940 0.00000 0.00958 0.00000
C20 1 1.000000 0.725482 1.250000 10.50000 0.02273 0.01001 =
0.02017 0.00000 0.00560 0.00000
C21 1 1.016506 0.773282 1.328813 11.00000 0.02668 0.01443 =
0.01776 0.00325 0.00554 0.00145
C22 1 1.015594 0.864355 1.328913 11.00000 0.03150 0.01434 =
0.01633 -0.00229 0.00517 -0.00077
C23 1 1.000000 0.911632 1.250000 10.50000 0.02611 0.00802 =
0.02277 0.00000 0.00497 0.00000
C24 1 1.000000 1.010603 1.250000 10.50000 0.03165 0.00565 =
0.01187 0.00000 0.00090 0.00000
C25 1 1.182925 0.134893 1.124137 11.00000 0.08730 0.16538 =
0.08691 -0.05813 0.06643 -0.02398
AFIX 137
H25A 2 1.128488 0.102977 1.094832 11.00000 -1.50000
H25B 2 1.231293 0.093364 1.139778 11.00000 -1.50000
H25C 2 1.188926 0.179759 1.082618 11.00000 -1.50000
AFIX 0
C26 1 0.500000 0.470922 0.250000 10.50000 0.02844 0.01462 =
0.01130 0.00000 0.00208 0.00000
C27 1 0.500000 0.570084 0.250000 10.50000 0.02738 0.01186 =
0.02107 0.00000 0.00889 0.00000
C28 1 0.441696 0.617583 0.179190 11.00000 0.02809 0.01677 =
0.01917 -0.00357 0.00533 -0.00491
C29 1 0.441488 0.708648 0.179216 11.00000 0.02581 0.01449 =
0.02041 0.00451 0.00740 0.00239
C30 1 0.500000 0.756463 0.250000 10.50000 0.02334 0.01179 =
0.02189 0.00000 0.00829 0.00000
C31 1 0.500000 0.140472 0.250000 10.50000 0.02860 0.01401 =
0.01548 0.00000 0.00392 0.00000
C32 1 0.500000 0.040826 0.250000 10.50000 0.02333 0.01301 =
0.02201 0.00000 0.00645 0.00000
C33 1 0.501447 -0.006685 0.176445 11.00000 0.03062 0.01598 =
0.01990 0.00220 0.00876 -0.00074
C34 1 0.503056 -0.097326 0.177209 11.00000 0.02601 0.01608 =
0.02051 -0.00346 0.00791 -0.00221
C35 1 0.500000 -0.146299 0.250000 10.50000 0.02129 0.01486 =
0.02272 0.00000 0.00690 0.00000
C36 1 0.324497 0.334508 0.391644 11.00000 0.04354 0.08125 =
0.02951 -0.00818 0.01904 0.00943
AFIX 137
H36A 2 0.373395 0.304207 0.437256 11.00000 -1.50000
H36B 2 0.270889 0.317376 0.398810 11.00000 -1.50000
H36C 2 0.332465 0.398451 0.399520 11.00000 -1.50000
AFIX 0
C37 1 0.823257 0.583889 0.901120 11.00000 0.06635 0.06787 =
0.04390 0.01434 0.02195 0.01909
AFIX 137
H37A 2 0.877586 0.552903 0.933748 11.00000 -1.50000
H37B 2 0.774705 0.547626 0.901081 11.00000 -1.50000
H37C 2 0.822939 0.640279 0.931068 11.00000 -1.50000
AFIX 0
C38 1 0.679767 0.927391 0.589585 11.00000 0.06832 0.08478 =
0.06720 0.02114 0.03125 0.00900
AFIX 137
H38A 2 0.635562 0.972561 0.562651 11.00000 -1.50000
H38B 2 0.665447 0.874400 0.551574 11.00000 -1.50000
H38C 2 0.736114 0.949929 0.593831 11.00000 -1.50000
AFIX 0
O1 3 0.990969 0.176764 1.107546 11.00000 0.02849 0.03307 =
0.01169 0.00106 0.00261 0.00488
O2 3 0.868595 0.180982 1.134500 11.00000 0.02917 0.02887 =
0.01076 0.00121 0.00399 -0.00084
O3 3 0.631418 0.292230 0.363618 11.00000 0.02809 0.02131 =
0.01151 0.00145 0.00446 0.00097
O4 3 0.511552 0.315866 0.393232 11.00000 0.02466 0.02766 =
0.01197 -0.00071 0.00203 0.00402
O5 3 1.059371 0.304906 1.233582 11.00000 0.03405 0.01023 =
0.03504 -0.00043 0.01707 0.00110
O6 3 1.183023 0.175373 1.202306 11.00000 0.02925 0.02523 =
0.02301 -0.00297 0.01035 0.00014
AFIX 147
H6 2 1.228055 0.161276 1.246214 11.00000 -1.50000
AFIX 0
O7 3 1.061976 1.046198 1.238233 11.00000 0.03233 0.00961 =
0.03006 -0.00030 0.00982 -0.00075
O8 3 0.433513 0.435093 0.251614 11.00000 0.02909 0.01334 =
0.02285 0.00054 0.00686 0.00082
O9 3 0.447182 0.177654 0.277168 11.00000 0.03448 0.01355 =
0.02453 0.00155 0.01285 0.00112
O10 3 0.319777 0.310581 0.303732 11.00000 0.03072 0.02554 =
0.02083 -0.00111 0.01056 0.00248
AFIX 147
H10 2 0.274626 0.331725 0.264741 11.00000 -1.50000
AFIX 0
O11 3 0.815394 0.599531 0.811036 11.00000 0.03949 0.04303 =
0.04435 0.01074 0.01682 -0.00003
AFIX 147
H11 2 0.857800 0.629308 0.811101 11.00000 -1.50000
AFIX 0
O12 3 0.682982 0.905680 0.679126 11.00000 0.05438 0.06619 =
0.07036 0.02090 0.02377 0.00346
AFIX 147
H12 2 0.634733 0.886203 0.675469 11.00000 -1.50000
AFIX 0
F1 4 0.928935 0.342204 1.001824 11.00000 0.03463 0.02509 =
0.01456 -0.00212 0.00004 -0.00699
F2 4 0.849983 0.375491 0.825210 11.00000 0.03469 0.02638 =
0.01607 0.00570 0.00477 -0.00477
F3 4 0.704863 0.102258 0.786673 11.00000 0.03272 0.02869 =
0.01483 -0.00174 0.00064 -0.00801
F4 4 0.789006 0.066405 0.962158 11.00000 0.04549 0.01992 =
0.01828 0.00342 0.00475 -0.00687
F5 4 0.678850 0.394896 0.728568 11.00000 0.03645 0.03001 =
0.01334 -0.00427 0.00630 0.00835
F6 4 0.593992 0.423275 0.552242 11.00000 0.04293 0.02500 =
0.01691 0.00176 0.00239 0.01250
F7 4 0.692634 0.148777 0.487963 11.00000 0.04928 0.02535 =
0.01401 -0.00057 0.00784 0.01202
F8 4 0.781365 0.123590 0.664192 11.00000 0.03729 0.03039 =
0.01623 0.00495 0.00445 0.01441
F9 4 1.139230 0.446211 1.365048 11.00000 0.02762 0.01462 =
0.02693 0.00318 0.00229 0.00451
F10 4 1.140387 0.621896 1.363462 11.00000 0.02500 0.01606 =
0.02614 -0.00135 0.00197 -0.00453
F11 4 1.032804 0.730608 1.407791 11.00000 0.04298 0.01466 =
0.01842 0.00302 0.00996 0.00059
F12 4 1.031310 0.907192 1.406848 11.00000 0.05442 0.01355 =
0.01942 -0.00327 0.00863 0.00099
F13 4 0.382694 0.574891 0.109495 11.00000 0.03668 0.01638 =
0.02319 -0.00086 -0.00136 -0.00465
F14 4 0.381143 0.751178 0.110048 11.00000 0.02979 0.01507 =
0.02506 0.00430 0.00170 0.00199
F15 4 0.500896 0.035184 0.102083 11.00000 0.05492 0.01702 =
0.02210 0.00089 0.01713 -0.00536
F16 4 0.509200 -0.139940 0.105964 11.00000 0.04826 0.01711 =
0.02561 -0.00523 0.01948 -0.00267
CU1 5 1.072477 0.174744 1.233454 11.00000 0.02395 0.00930 =
0.01045 0.00000 0.00293 0.00100
CU2 5 0.428563 0.307222 0.267855 11.00000 0.02274 0.01115 =
0.00985 0.00024 0.00282 0.00035
HKLF 4

REM uhouston02_0ma in P2/c
REM R1 = 0.0394 for 5766 Fo > 4sig(Fo) and 0.0488 for all 6865 data
REM 573 parameters refined using 0 restraints

END

WGHT 0.0451 8.9104
REM Highest difference peak 0.846, deepest hole -0.808, 1-sigma level 0.090
Q1 1 1.2264 0.1012 1.1867 11.00000 0.05 0.85
Q2 1 1.0244 0.1798 1.2463 11.00000 0.05 0.63
Q3 1 0.8158 0.6909 0.9197 11.00000 0.05 0.52
Q4 1 0.4713 0.2962 0.2479 11.00000 0.05 0.50
Q5 1 0.6244 0.3021 0.5466 11.00000 0.05 0.39
Q6 1 0.5573 0.0328 0.1262 11.00000 0.05 0.37
Q7 1 0.6456 0.2342 0.5310 11.00000 0.05 0.35
Q8 1 0.6774 0.2653 0.5322 11.00000 0.05 0.34
Q9 1 1.1299 0.1806 1.2114 11.00000 0.05 0.34
Q10 1 0.7123 0.2921 0.6875 11.00000 0.05 0.34
Q11 1 0.4739 0.7338 0.2110 11.00000 0.05 0.34
Q12 1 1.0000 0.9531 1.2500 10.50000 0.05 0.33
Q13 1 0.6152 0.2895 0.4713 11.00000 0.05 0.33
Q14 1 1.0113 0.7500 1.2161 11.00000 0.05 0.32
Q15 1 0.8404 0.1755 0.9596 11.00000 0.05 0.32
Q16 1 0.3783 0.2980 0.2899 11.00000 0.05 0.32
Q17 1 1.1167 0.1705 1.0643 11.00000 0.05 0.31
Q18 1 1.0899 0.9146 1.4000 11.00000 0.05 0.31
Q19 1 0.9944 0.8166 1.3287 11.00000 0.05 0.31
Q20 1 0.4811 -0.1300 0.2155 11.00000 0.05 0.30
Q21 1 0.5536 0.0018 0.2194 11.00000 0.05 0.30
Q22 1 1.0100 0.8862 1.2891 11.00000 0.05 0.30
Q23 1 0.7518 0.2480 0.7523 11.00000 0.05 0.29
Q24 1 0.4241 0.6716 0.1931 11.00000 0.05 0.29
Q25 1 0.5197 -0.0550 0.1832 11.00000 0.05 0.29
;
