####################################################################### 
# 
# This file contains crystal structure data downloaded from the 
# Cambridge Structural Database (CSD) hosted by the Cambridge 
# Crystallographic Data Centre (CCDC).
# 
# Full information about CCDC data access policies and citation 
# guidelines are available at http://www.ccdc.cam.ac.uk/access/V1 
# 
# Audit and citation data items may have been added by the CCDC. 
# Please retain this information to preserve the provenance of 
# this file and to allow appropriate attribution of the data. 
# 
#######################################################################

data_znm
_audit_block_doi                 10.5517/ccvfjsk
_database_code_depnum_ccdc_archive 'CCDC 787579'
loop_
_citation_id
_citation_doi
_citation_year
1 10.1002/adma.201004028 2011
_audit_update_record             
;
2010-08-04 deposited with the CCDC.	2021-12-15 downloaded from the CCDC.
;
#TrackingRef 'web_deposit_cif_file_0_Jie-PengZhang_1280890930.cif'


_audit_creation_method           SHELXL-97
_chemical_name_systematic        
;
?
;
_chemical_name_common            ?
_chemical_melting_point          ?
_chemical_formula_moiety         ?
_chemical_formula_sum            'C6 H12 N6 O2 Zn'
_chemical_formula_weight         265.59

loop_
_atom_type_symbol
_atom_type_description
_atom_type_scat_dispersion_real
_atom_type_scat_dispersion_imag
_atom_type_scat_source
C C 0.0033 0.0016 'International Tables Vol C Tables 4.2.6.8 and 6.1.1.4'
H H 0.0000 0.0000 'International Tables Vol C Tables 4.2.6.8 and 6.1.1.4'
N N 0.0061 0.0033 'International Tables Vol C Tables 4.2.6.8 and 6.1.1.4'
O O 0.0106 0.0060 'International Tables Vol C Tables 4.2.6.8 and 6.1.1.4'
Zn Zn 0.2839 1.4301 'International Tables Vol C Tables 4.2.6.8 and 6.1.1.4'

_symmetry_cell_setting           cubic
_symmetry_space_group_name_H-M   I-43m

loop_
_symmetry_equiv_pos_as_xyz
'x, y, z'
'x, -y, -z'
'-x, -y, z'
'-x, y, -z'
'y, -x, -z'
'-y, -x, z'
'-y, x, -z'
'y, x, z'
'y, z, x'
'-y, -z, x'
'y, -z, -x'
'-y, z, -x'
'z, -y, -x'
'z, y, x'
'-z, y, -x'
'-z, -y, x'
'z, x, y'
'-z, x, -y'
'-z, -x, y'
'z, -x, -y'
'x, z, y'
'x, -z, -y'
'-x, z, -y'
'-x, -z, y'
'x+1/2, y+1/2, z+1/2'
'x+1/2, -y+1/2, -z+1/2'
'-x+1/2, -y+1/2, z+1/2'
'-x+1/2, y+1/2, -z+1/2'
'y+1/2, -x+1/2, -z+1/2'
'-y+1/2, -x+1/2, z+1/2'
'-y+1/2, x+1/2, -z+1/2'
'y+1/2, x+1/2, z+1/2'
'y+1/2, z+1/2, x+1/2'
'-y+1/2, -z+1/2, x+1/2'
'y+1/2, -z+1/2, -x+1/2'
'-y+1/2, z+1/2, -x+1/2'
'z+1/2, -y+1/2, -x+1/2'
'z+1/2, y+1/2, x+1/2'
'-z+1/2, y+1/2, -x+1/2'
'-z+1/2, -y+1/2, x+1/2'
'z+1/2, x+1/2, y+1/2'
'-z+1/2, x+1/2, -y+1/2'
'-z+1/2, -x+1/2, y+1/2'
'z+1/2, -x+1/2, -y+1/2'
'x+1/2, z+1/2, y+1/2'
'x+1/2, -z+1/2, -y+1/2'
'-x+1/2, z+1/2, -y+1/2'
'-x+1/2, -z+1/2, y+1/2'

_cell_length_a                   16.9858(11)
_cell_length_b                   16.9858(11)
_cell_length_c                   16.9858(11)
_cell_angle_alpha                90.00
_cell_angle_beta                 90.00
_cell_angle_gamma                90.00
_cell_volume                     4900.7(5)
_cell_formula_units_Z            12
_cell_measurement_temperature    293(2)
_cell_measurement_reflns_used    ?
_cell_measurement_theta_min      ?
_cell_measurement_theta_max      ?

_exptl_crystal_description       block
_exptl_crystal_colour            colorless
_exptl_crystal_size_max          0.25
_exptl_crystal_size_mid          0.25
_exptl_crystal_size_min          0.24
_exptl_crystal_density_meas      ?
_exptl_crystal_density_diffrn    1.080
_exptl_crystal_density_method    'not measured'
_exptl_crystal_F_000             1632
_exptl_absorpt_coefficient_mu    1.498
_exptl_absorpt_correction_type   multi-scan
_exptl_absorpt_correction_T_min  0.7058
_exptl_absorpt_correction_T_max  0.7150
_exptl_absorpt_process_details   SADABS

_exptl_special_details           
;
?
;

_diffrn_ambient_temperature      293(2)
_diffrn_radiation_wavelength     0.71073
_diffrn_radiation_type           MoK\a
_diffrn_radiation_source         'fine-focus sealed tube'
_diffrn_radiation_monochromator  graphite
_diffrn_measurement_device_type  CCD
_diffrn_measurement_method       '/w scan'
_diffrn_detector_area_resol_mean ?
_diffrn_standards_number         ?
_diffrn_standards_interval_count ?
_diffrn_standards_interval_time  ?
_diffrn_standards_decay_%        ?
_diffrn_reflns_number            18810
_diffrn_reflns_av_R_equivalents  0.0275
_diffrn_reflns_av_sigmaI/netI    0.0139
_diffrn_reflns_limit_h_min       -17
_diffrn_reflns_limit_h_max       20
_diffrn_reflns_limit_k_min       -20
_diffrn_reflns_limit_k_max       20
_diffrn_reflns_limit_l_min       -20
_diffrn_reflns_limit_l_max       20
_diffrn_reflns_theta_min         2.94
_diffrn_reflns_theta_max         25.97
_reflns_number_total             927
_reflns_number_gt                905
_reflns_threshold_expression     >2sigma(I)

_computing_data_collection       ?
_computing_cell_refinement       ?
_computing_data_reduction        ?
_computing_structure_solution    'SHELXS-97 (Sheldrick, 1990)'
_computing_structure_refinement  'SHELXL-97 (Sheldrick, 1997)'
_computing_molecular_graphics    ?
_computing_publication_material  ?

_refine_special_details          
;
Refinement of F^2^ against ALL reflections. The weighted R-factor wR and
goodness of fit S are based on F^2^, conventional R-factors R are based
on F, with F set to zero for negative F^2^. The threshold expression of
F^2^ > 2sigma(F^2^) is used only for calculating R-factors(gt) etc. and is
not relevant to the choice of reflections for refinement. R-factors based
on F^2^ are statistically about twice as large as those based on F, and R-
factors based on ALL data will be even larger.
;

_refine_ls_structure_factor_coef Fsqd
_refine_ls_matrix_type           full
_refine_ls_weighting_scheme      calc
_refine_ls_weighting_details     
'calc w=1/[\s^2^(Fo^2^)+(0.0660P)^2^+0.0000P] where P=(Fo^2^+2Fc^2^)/3'
_atom_sites_solution_primary     direct
_atom_sites_solution_secondary   difmap
_atom_sites_solution_hydrogens   geom
_refine_ls_hydrogen_treatment    constr
_refine_ls_extinction_method     none
_refine_ls_extinction_coef       ?
_refine_ls_abs_structure_details 'Flack H D (1983), Acta Cryst. A39, 876-881'
_refine_ls_abs_structure_Flack   0.01(2)
_refine_ls_number_reflns         927
_refine_ls_number_parameters     49
_refine_ls_number_restraints     0
_refine_ls_R_factor_all          0.0343
_refine_ls_R_factor_gt           0.0334
_refine_ls_wR_factor_ref         0.0803
_refine_ls_wR_factor_gt          0.0794
_refine_ls_goodness_of_fit_ref   1.031
_refine_ls_restrained_S_all      1.031
_refine_ls_shift/su_max          0.000
_refine_ls_shift/su_mean         0.000

loop_
_atom_site_label
_atom_site_type_symbol
_atom_site_fract_x
_atom_site_fract_y
_atom_site_fract_z
_atom_site_U_iso_or_equiv
_atom_site_adp_type
_atom_site_occupancy
_atom_site_symmetry_multiplicity
_atom_site_calc_flag
_atom_site_refinement_flags
_atom_site_disorder_assembly
_atom_site_disorder_group
Zn1 Zn 0.0000 0.5000 0.7500 0.0621(2) Uani 1 4 d S . .
N1 N 0.08940(13) 0.47082(12) 0.81965(12) 0.0668(5) Uani 1 1 d . . .
N2 N 0.12354(19) 0.39871(16) 0.82120(19) 0.0854(7) Uani 0.50 1 d P A 1
C1 C 0.12354(19) 0.39871(16) 0.82120(19) 0.0854(7) Uani 0.50 1 d P A 2
H1A H 0.1105 0.3564 0.7890 0.102 Uiso 0.50 1 calc PR A 2
C2 C 0.12451(13) 0.5131(2) 0.87549(13) 0.0625(9) Uani 1 2 d S A .
C3 C 0.1043(3) 0.5958(3) 0.8957(3) 0.0952(14) Uani 1 2 d S . .
H3A H 0.0490 0.6043 0.8872 0.114 Uiso 1 1 d R A .
H3B H 0.1349 0.6321 0.8651 0.114 Uiso 1 2 d SR . .
O1W O 0.7391(5) 0.4361(9) 0.7391(5) 0.157(4) Uiso 0.54 2 d SP B 1
H1W H 0.7382 0.3861 0.7382 0.235 Uiso 0.54 2 d SPR B 1
H1WA H 0.7350 0.4858 0.7350 0.235 Uiso 0.54 2 d SPR B 1
O2W O 0.7024(16) 0.357(2) 0.7024(16) 0.152(12) Uiso 0.16 2 d SP C 2
H2W H 0.7046 0.4072 0.7046 0.228 Uiso 0.32 2 d SPR C 2
O3W O 0.2527(19) 0.5000 0.5000 0.144(13) Uiso 0.20 4 d SP D 3
H3W H 0.2748 0.4982 0.5520 0.216 Uiso 0.10 1 d PR D 3
O4W O 0.704(3) 0.296(3) 0.704(3) 0.15(2) Uiso 0.18 6 d SP E 4
H4W H 0.6827 0.3289 0.6711 0.221 Uiso 0.12 2 d SPR E 4
O5W O 0.645(4) 0.355(4) 0.645(4) 0.13(3) Uiso 0.09 6 d SP F 5
H5W H 0.6749 0.3815 0.6749 0.199 Uiso 0.06 2 d SPR F 5
O6W O 0.802(6) 0.198(6) 0.802(6) 0.15(5) Uiso 0.09 6 d SP G 6
H6W H 0.7741 0.1670 0.7741 0.228 Uiso 0.06 2 d SPR G 6
O7W O 0.744(2) 0.256(2) 0.744(2) 0.132(12) Uiso 0.24 6 d SP H 7
H7W H 0.7609 0.2131 0.7609 0.199 Uiso 0.16 2 d SPR H 7

loop_
_atom_site_aniso_label
_atom_site_aniso_U_11
_atom_site_aniso_U_22
_atom_site_aniso_U_33
_atom_site_aniso_U_23
_atom_site_aniso_U_13
_atom_site_aniso_U_12
Zn1 0.0640(2) 0.0640(2) 0.0583(3) 0.000 0.000 0.000
N1 0.0703(11) 0.0657(10) 0.0642(10) -0.0025(8) -0.0088(9) 0.0048(8)
N2 0.1011(19) 0.0667(13) 0.0885(17) -0.0146(12) -0.0166(14) 0.0108(12)
C1 0.1011(19) 0.0667(13) 0.0885(17) -0.0146(12) -0.0166(14) 0.0108(12)
C2 0.0671(9) 0.053(3) 0.0671(9) -0.0003(9) -0.0027(13) 0.0003(9)
C3 0.108(2) 0.070(2) 0.108(2) -0.0185(19) -0.031(3) 0.0185(19)

_geom_special_details            
;
All esds (except the esd in the dihedral angle between two l.s. planes)
are estimated using the full covariance matrix. The cell esds are taken
into account individually in the estimation of esds in distances, angles
and torsion angles; correlations between esds in cell parameters are only
used when they are defined by crystal symmetry. An approximate (isotropic)
treatment of cell esds is used for estimating esds involving l.s. planes.
;

loop_
_geom_bond_atom_site_label_1
_geom_bond_atom_site_label_2
_geom_bond_distance
_geom_bond_site_symmetry_2
_geom_bond_publ_flag
Zn1 N1 1.988(2) 29_456 ?
Zn1 N1 1.988(2) . ?
Zn1 N1 1.988(2) 31_556 ?
Zn1 N1 1.988(2) 3_565 ?
N1 C2 1.331(3) . ?
N1 N2 1.356(4) . ?
N2 N2 1.327(6) 15_656 ?
C2 N1 1.331(3) 15_656 ?
C2 C3 1.487(5) . ?
C3 H3A 0.9600 . ?
C3 H3B 0.9599 . ?
O1W H1W 0.8499 . ?
O1W H1WA 0.8499 . ?
O1W H2W 0.9639 . ?
O2W O2W 1.43(7) 6_665 ?
O2W O2W 1.43(7) 20_566 ?
O2W H1W 0.9886 . ?
O2W H2W 0.8498 . ?
O2W H4W 0.7919 . ?
O2W H5W 0.7791 . ?
O3W H3W 0.9600 . ?
O4W H4W 0.8564 . ?
O5W H4W 0.9034 . ?
O5W H5W 0.8507 . ?
O6W H6W 0.8496 . ?
O6W H7W 1.0082 . ?
O7W H7W 0.8354 . ?

loop_
_geom_angle_atom_site_label_1
_geom_angle_atom_site_label_2
_geom_angle_atom_site_label_3
_geom_angle
_geom_angle_site_symmetry_1
_geom_angle_site_symmetry_3
_geom_angle_publ_flag
N1 Zn1 N1 110.75(7) 29_456 . ?
N1 Zn1 N1 106.95(13) 29_456 31_556 ?
N1 Zn1 N1 110.75(7) . 31_556 ?
N1 Zn1 N1 110.75(7) 29_456 3_565 ?
N1 Zn1 N1 106.95(13) . 3_565 ?
N1 Zn1 N1 110.75(7) 31_556 3_565 ?
C2 N1 N2 106.4(2) . . ?
C2 N1 Zn1 129.21(18) . . ?
N2 N1 Zn1 124.32(17) . . ?
N2 N2 N1 108.44(15) 15_656 . ?
N1 C2 N1 110.4(3) . 15_656 ?
N1 C2 C3 124.81(15) . . ?
N1 C2 C3 124.81(15) 15_656 . ?
C2 C3 H3A 109.5 . . ?
C2 C3 H3B 110.9 . . ?
H3A C3 H3B 110.6 . . ?
H1W O1W H1WA 171.9 . . ?
H1W O1W H2W 57.9 . . ?
H1WA O1W H2W 114.0 . . ?
O2W O2W O2W 60.000(6) 6_665 20_566 ?
O2W O2W H1W 141.7 6_665 . ?
O2W O2W H1W 141.7 20_566 . ?
O2W O2W H2W 137.4 6_665 . ?
O2W O2W H2W 137.4 20_566 . ?
H1W O2W H2W 56.9 . . ?
O2W O2W H4W 43.3 6_665 . ?
O2W O2W H4W 25.1 20_566 . ?
H1W O2W H4W 166.8 . . ?
H2W O2W H4W 130.8 . . ?
O2W O2W H5W 87.1 6_665 . ?
O2W O2W H5W 87.1 20_566 . ?
H1W O2W H5W 118.4 . . ?
H2W O2W H5W 61.6 . . ?
H4W O2W H5W 70.3 . . ?
H4W O5W H5W 62.0 . . ?
H6W O6W H7W 53.3 . . ?

_diffrn_measured_fraction_theta_max 0.992
_diffrn_reflns_theta_full        25.97
_diffrn_measured_fraction_theta_full 0.992
_refine_diff_density_max         0.328
_refine_diff_density_min         -0.252
_refine_diff_density_rms         0.064


