####################################################################### 
# 
# This file contains crystal structure data downloaded from the 
# Cambridge Structural Database (CSD) hosted by the Cambridge 
# Crystallographic Data Centre (CCDC).
# 
# Full information about CCDC data access policies and citation 
# guidelines are available at http://www.ccdc.cam.ac.uk/access/V1 
# 
# Audit and citation data items may have been added by the CCDC. 
# Please retain this information to preserve the provenance of 
# this file and to allow appropriate attribution of the data. 
# 
#######################################################################

data_ZIF71-RHO
_audit_block_doi                 10.5517/ccqj9s9
_database_code_depnum_ccdc_archive 'CCDC 671081'
loop_
_citation_id
_citation_doi
_citation_year
1 10.1126/science.1152516 2008
_audit_update_record             
;
2007-12-14 deposited with the CCDC.	2021-12-15 downloaded from the CCDC.
;

_audit_creation_method           SHELXL-97
_chemical_name_systematic        
;
?
;
_chemical_name_common            ZIF71-RHO
_chemical_melting_point          ?
_chemical_formula_moiety         'C6 H2 Cl4 N4 Zn'
_chemical_formula_sum            'C6 H2 Cl4 N4 Zn'
_chemical_formula_weight         337.29

loop_
_atom_type_symbol
_atom_type_description
_atom_type_scat_dispersion_real
_atom_type_scat_dispersion_imag
_atom_type_scat_source
C C 0.0181 0.0091 'International Tables Vol C Tables 4.2.6.8 and 6.1.1.4'
H H 0.0000 0.0000 'International Tables Vol C Tables 4.2.6.8 and 6.1.1.4'
N N 0.0311 0.0180 'International Tables Vol C Tables 4.2.6.8 and 6.1.1.4'
Cl Cl 0.3639 0.7018 'International Tables Vol C Tables 4.2.6.8 and 6.1.1.4'
Zn Zn -1.5491 0.6778 'International Tables Vol C Tables 4.2.6.8 and 6.1.1.4'

_symmetry_cell_setting           Cubic
_symmetry_space_group_name_H-M   Pm-3m

loop_
_symmetry_equiv_pos_as_xyz
'x, y, z'
'-x, -y, z'
'-x, y, -z'
'x, -y, -z'
'z, x, y'
'z, -x, -y'
'-z, -x, y'
'-z, x, -y'
'y, z, x'
'-y, z, -x'
'y, -z, -x'
'-y, -z, x'
'y, x, -z'
'-y, -x, -z'
'y, -x, z'
'-y, x, z'
'x, z, -y'
'-x, z, y'
'-x, -z, -y'
'x, -z, y'
'z, y, -x'
'z, -y, x'
'-z, y, x'
'-z, -y, -x'
'-x, -y, -z'
'x, y, -z'
'x, -y, z'
'-x, y, z'
'-z, -x, -y'
'-z, x, y'
'z, x, -y'
'z, -x, y'
'-y, -z, -x'
'y, -z, x'
'-y, z, x'
'y, z, -x'
'-y, -x, z'
'y, x, z'
'-y, x, -z'
'y, -x, -z'
'-x, -z, y'
'x, -z, -y'
'x, z, y'
'-x, z, -y'
'-z, -y, x'
'-z, y, -x'
'z, -y, -x'
'z, y, x'

_cell_length_a                   28.5539(2)
_cell_length_b                   28.5539(2)
_cell_length_c                   28.5539(2)
_cell_angle_alpha                90.00
_cell_angle_beta                 90.00
_cell_angle_gamma                90.00
_cell_volume                     23280.7(3)
_cell_formula_units_Z            48
_cell_measurement_temperature    153(2)
_cell_measurement_reflns_used    9416
_cell_measurement_theta_min      2.19
_cell_measurement_theta_max      35.21

_exptl_crystal_description       cubic
_exptl_crystal_colour            colorless
_exptl_crystal_size_max          0.22
_exptl_crystal_size_mid          0.20
_exptl_crystal_size_min          0.19
_exptl_crystal_density_meas      ?
_exptl_crystal_density_diffrn    1.155
_exptl_crystal_density_method    'not measured'
_exptl_crystal_F_000             7872
_exptl_absorpt_coefficient_mu    6.697
_exptl_absorpt_correction_type   none
_exptl_absorpt_correction_T_min  ?
_exptl_absorpt_correction_T_max  ?
_exptl_absorpt_process_details   ?

_exptl_special_details           
;
Due to the highly porous nature of this compound
solvent included in the pores was highly disordered
causing a high background which washed out high angle
data. Therefore diffraction was limited to atheta max 36.83.

;

_diffrn_ambient_temperature      153(2)
_diffrn_radiation_wavelength     1.54178
_diffrn_radiation_type           CuK\a
_diffrn_radiation_source         'fine-focus sealed tube'
_diffrn_radiation_monochromator  graphite
_diffrn_measurement_device_type  'CCD area detector'
_diffrn_measurement_method       'phi and omega scans'
_diffrn_detector_area_resol_mean ?
_diffrn_standards_number         ?
_diffrn_standards_interval_count ?
_diffrn_standards_interval_time  ?
_diffrn_standards_decay_%        ?
_diffrn_reflns_number            57835
_diffrn_reflns_av_R_equivalents  0.1866
_diffrn_reflns_av_sigmaI/netI    0.0475
_diffrn_reflns_limit_h_min       -22
_diffrn_reflns_limit_h_max       22
_diffrn_reflns_limit_k_min       -22
_diffrn_reflns_limit_k_max       22
_diffrn_reflns_limit_l_min       -22
_diffrn_reflns_limit_l_max       22
_diffrn_reflns_theta_min         1.55
_diffrn_reflns_theta_max         36.83
_reflns_number_total             1209
_reflns_number_gt                782
_reflns_threshold_expression     >2sigma(I)

_computing_data_collection       'Bruker SMART'
_computing_cell_refinement       'Bruker SMART'
_computing_data_reduction        'Bruker SAINT'
_computing_structure_solution    'SHELXS-97 (Sheldrick, 1990)'
_computing_structure_refinement  'SHELXL-97 (Sheldrick, 1997)'
_computing_molecular_graphics    'Bruker SHELXTL'
_computing_publication_material  'Bruker SHELXTL'

_refine_special_details          
;
Refinement of F^2^ against ALL reflections. The weighted R-factor wR and
goodness of fit S are based on F^2^, conventional R-factors R are based
on F, with F set to zero for negative F^2^. The threshold expression of
F^2^ > 2sigma(F^2^) is used only for calculating R-factors(gt) etc. and is
not relevant to the choice of reflections for refinement. R-factors based
on F^2^ are statistically about twice as large as those based on F, and R-
factors based on ALL data will be even larger.

The Highest Ueqs are calculated for
the partial occupancy carbon atoms
and these values have a high esd.
Since each positional and displacement
parameter for H is dependent on C, The
similar high ratio must also found for
hydrogen.
The attempts made to model the guests
(solvent molecules) did not lead to
identification of guest entities in
all structures due to the limited
periodicity of the solvent molecules
in the crystals. Since the solvent
is not bonded to the framework this
is can be expected for the MOF
structures. Many atomic co-ordinates
that have been attributed to solvent
molecules lie on a special position.
However very high displacement parameters ,
high esds and partial occupancy due
to the disorder
make it impossible to determine
accurate location/position for
these solvent molecules.
;

_refine_ls_structure_factor_coef Fsqd
_refine_ls_matrix_type           full
_refine_ls_weighting_scheme      calc
_refine_ls_weighting_details     
'calc w=1/[\s^2^(Fo^2^)+(0.0600P)^2^+4.8671P] where P=(Fo^2^+2Fc^2^)/3'
_atom_sites_solution_primary     direct
_atom_sites_solution_secondary   difmap
_atom_sites_solution_hydrogens   geom
_refine_ls_hydrogen_treatment    constr
_refine_ls_extinction_method     none
_refine_ls_extinction_coef       ?
_refine_ls_number_reflns         1209
_refine_ls_number_parameters     142
_refine_ls_number_restraints     0
_refine_ls_R_factor_all          0.0776
_refine_ls_R_factor_gt           0.0424
_refine_ls_wR_factor_ref         0.1145
_refine_ls_wR_factor_gt          0.1045
_refine_ls_goodness_of_fit_ref   1.022
_refine_ls_restrained_S_all      1.022
_refine_ls_shift/su_max          0.000
_refine_ls_shift/su_mean         0.000

loop_
_atom_site_label
_atom_site_type_symbol
_atom_site_fract_x
_atom_site_fract_y
_atom_site_fract_z
_atom_site_U_iso_or_equiv
_atom_site_adp_type
_atom_site_occupancy
_atom_site_symmetry_multiplicity
_atom_site_calc_flag
_atom_site_refinement_flags
_atom_site_disorder_assembly
_atom_site_disorder_group
Zn1 Zn 0.39551(6) 0.10433(6) 0.25207(6) 0.1533(9) Uani 1 1 d . . .
C1A C 0.3957(7) 0.0000 0.2590(6) 0.143(8) Uani 1 2 d S . .
H1A H 0.4239 0.0000 0.2766 0.171 Uiso 1 2 calc SR . .
N2A N 0.3721(3) 0.0380(5) 0.2443(3) 0.139(4) Uani 1 1 d . . .
C3A C 0.3358(4) 0.0243(4) 0.2215(3) 0.129(5) Uani 1 1 d . . .
Cl4A Cl 0.29541(10) 0.06062(11) 0.19564(10) 0.1959(14) Uani 1 1 d . . .
C1B C 0.5000 0.1065(5) 0.2548(7) 0.132(7) Uani 1 2 d S . .
H1B H 0.5000 0.1171 0.2232 0.158 Uiso 1 2 calc SR . .
N2B N 0.4603(3) 0.0991(3) 0.2769(4) 0.144(3) Uani 1 1 d . . .
C3B C 0.4776(4) 0.0827(4) 0.3208(4) 0.182(7) Uani 1 1 d . . .
Cl4B Cl 0.43906(12) 0.06862(15) 0.36268(11) 0.281(2) Uani 1 1 d . . .
C1C C 0.3176(4) 0.1142(7) 0.3176(4) 0.112(6) Uani 1 2 d S . .
H1C H 0.3065 0.0849 0.3065 0.134 Uiso 1 2 calc SR . .
N2C N 0.3539(3) 0.1349(4) 0.2972(4) 0.134(3) Uani 1 1 d . . .
C3C C 0.3566(4) 0.1753(4) 0.3241(4) 0.148(5) Uani 1 1 d . . .
Cl4C Cl 0.39754(12) 0.21522(11) 0.31090(11) 0.2121(16) Uani 1 1 d . . .
C1D C 0.3949(6) 0.1781(8) 0.1781(8) 0.140(9) Uani 1 2 d S . .
H1D H 0.3856 0.2007 0.2007 0.168 Uiso 1 2 calc SR . .
N2D N 0.4007(3) 0.1361(4) 0.1923(4) 0.138(4) Uani 1 1 d . . .
C3D C 0.4171(3) 0.1186(3) 0.1507(4) 0.120(5) Uani 1 1 d . . .
Cl4D Cl 0.43310(10) 0.05954(11) 0.14477(9) 0.1940(14) Uani 1 1 d . . .

loop_
_atom_site_aniso_label
_atom_site_aniso_U_11
_atom_site_aniso_U_22
_atom_site_aniso_U_33
_atom_site_aniso_U_23
_atom_site_aniso_U_13
_atom_site_aniso_U_12
Zn1 0.1456(17) 0.1508(17) 0.1637(18) -0.0145(13) 0.0069(13) -0.0010(12)
C1A 0.061(17) 0.27(3) 0.101(14) 0.000 -0.027(12) 0.000
N2A 0.077(11) 0.227(16) 0.111(8) -0.001(8) -0.034(7) 0.030(9)
C3A 0.097(9) 0.168(15) 0.123(8) 0.034(7) -0.044(6) 0.062(9)
Cl4A 0.181(3) 0.205(3) 0.202(3) 0.005(2) -0.043(2) 0.014(2)
C1B 0.061(17) 0.141(14) 0.19(2) -0.029(13) 0.000 0.000
N2B 0.081(12) 0.160(8) 0.191(12) -0.035(7) -0.010(10) -0.002(7)
C3B 0.125(19) 0.288(13) 0.134(11) -0.040(9) -0.027(10) 0.016(9)
Cl4B 0.152(3) 0.561(7) 0.131(3) -0.013(3) 0.018(2) -0.003(3)
C1C 0.112(11) 0.112(17) 0.112(11) 0.013(8) -0.029(16) 0.013(8)
N2C 0.108(9) 0.159(12) 0.135(12) -0.001(7) 0.016(10) 0.008(10)
C3C 0.163(12) 0.139(11) 0.141(12) -0.011(8) 0.016(11) -0.006(10)
Cl4C 0.219(3) 0.187(3) 0.230(3) -0.039(3) 0.049(3) -0.068(3)
C1D 0.106(13) 0.157(13) 0.157(13) 0.07(3) -0.029(11) -0.029(11)
N2D 0.142(8) 0.188(13) 0.084(11) 0.021(12) 0.021(7) -0.010(8)
C3D 0.128(8) 0.113(13) 0.118(10) 0.007(10) 0.003(6) -0.001(6)
Cl4D 0.249(3) 0.159(3) 0.174(3) -0.018(2) 0.021(2) 0.023(2)

_geom_special_details            
;
All esds (except the esd in the dihedral angle between two l.s. planes)
are estimated using the full covariance matrix. The cell esds are taken
into account individually in the estimation of esds in distances, angles
and torsion angles; correlations between esds in cell parameters are only
used when they are defined by crystal symmetry. An approximate (isotropic)
treatment of cell esds is used for estimating esds involving l.s. planes.
The Highest Ueqs are calculated for
the partial occupancy carbon atoms
and these values have a high esd.
Since each positional and displacement
parameter for H is dependent on C, The
similar high ratio must also found for
hydrogen.
The attempts made to model the guests
(solvent molecules) did not lead to
identification of guest entities in
all structures due to the limited
periodicity of the solvent molecules
in the crystals. Since the solvent
is not bonded to the framework this
is can be expected for the MOF
structures. Many atomic co-ordinates
that have been attributed to solvent
molecules lie on a special position.
However very high displacement parameters ,
high esds and partial occupancy due
to the disorder
make it impossible to determine
accurate location/position for
these solvent molecules.
;

loop_
_geom_bond_atom_site_label_1
_geom_bond_atom_site_label_2
_geom_bond_distance
_geom_bond_site_symmetry_2
_geom_bond_publ_flag
Zn1 N2D 1.938(10) . ?
Zn1 N2C 1.960(13) . ?
Zn1 N2B 1.987(10) . ?
Zn1 N2A 2.020(14) . ?
C1A N2A 1.344(9) . ?
C1A N2A 1.344(9) 27 ?
C1A H1A 0.9500 . ?
N2A C3A 1.285(14) . ?
C3A C3A 1.39(2) 27 ?
C3A Cl4A 1.718(9) . ?
C1B N2B 1.315(13) 28_655 ?
C1B N2B 1.315(13) . ?
C1B H1B 0.9500 . ?
N2B C3B 1.426(13) . ?
C3B C3B 1.28(2) 28_655 ?
C3B Cl4B 1.675(11) . ?
C1C N2C 1.327(10) . ?
C1C N2C 1.327(10) 48 ?
C1C H1C 0.9500 . ?
N2C C3C 1.387(14) . ?
C3C C3C 1.31(2) 48 ?
C3C Cl4C 1.677(11) . ?
C1D N2D 1.278(19) . ?
C1D N2D 1.278(19) 43 ?
C1D C3D 1.98(3) 43 ?
C1D H1D 0.9500 . ?
N2D C3D 1.372(13) . ?
C3D C3D 1.296(17) 43 ?
C3D Cl4D 1.754(8) . ?

loop_
_geom_angle_atom_site_label_1
_geom_angle_atom_site_label_2
_geom_angle_atom_site_label_3
_geom_angle
_geom_angle_site_symmetry_1
_geom_angle_site_symmetry_3
_geom_angle_publ_flag
N2D Zn1 N2C 114.7(5) . . ?
N2D Zn1 N2B 106.2(4) . . ?
N2C Zn1 N2B 111.3(4) . . ?
N2D Zn1 N2A 111.5(4) . . ?
N2C Zn1 N2A 106.8(4) . . ?
N2B Zn1 N2A 106.1(3) . . ?
N2A C1A N2A 108(2) . 27 ?
N2A C1A H1A 126.1 . . ?
N2A C1A H1A 126.1 27 . ?
C3A N2A C1A 108.4(19) . . ?
C3A N2A Zn1 127.4(10) . . ?
C1A N2A Zn1 123.9(11) . . ?
N2A C3A C3A 107.7(9) . 27 ?
N2A C3A Cl4A 125.2(12) . . ?
C3A C3A Cl4A 127.1(4) 27 . ?
N2B C1B N2B 119(2) 28_655 . ?
N2B C1B H1B 120.5 28_655 . ?
N2B C1B H1B 120.5 . . ?
C1B N2B C3B 100.2(15) . . ?
C1B N2B Zn1 128.2(13) . . ?
C3B N2B Zn1 131.3(8) . . ?
C3B C3B N2B 110.3(6) 28_655 . ?
C3B C3B Cl4B 131.1(4) 28_655 . ?
N2B C3B Cl4B 118.6(9) . . ?
N2C C1C N2C 119(2) . 48 ?
N2C C1C H1C 120.5 . . ?
N2C C1C H1C 120.5 48 . ?
C1C N2C C3C 99.9(18) . . ?
C1C N2C Zn1 124.3(13) . . ?
C3C N2C Zn1 134.5(9) . . ?
C3C C3C N2C 110.6(8) 48 . ?
C3C C3C Cl4C 130.8(4) 48 . ?
N2C C3C Cl4C 118.6(10) . . ?
N2D C1D N2D 125(4) . 43 ?
N2D C1D C3D 82(2) . 43 ?
N2D C1D C3D 43.6(14) 43 43 ?
N2D C1D H1D 117.4 . . ?
N2D C1D H1D 117.4 43 . ?
C3D C1D H1D 160.6 43 . ?
C1D N2D C3D 96.5(18) . . ?
C1D N2D Zn1 135(2) . . ?
C3D N2D Zn1 128.2(9) . . ?
C3D C3D N2D 110.8(6) 43 . ?
C3D C3D Cl4D 127.7(4) 43 . ?
N2D C3D Cl4D 121.4(8) . . ?

_diffrn_measured_fraction_theta_max 1.000
_diffrn_reflns_theta_full        36.83
_diffrn_measured_fraction_theta_full 1.000
_refine_diff_density_max         0.134
_refine_diff_density_min         -0.286
_refine_diff_density_rms         0.031
