####################################################################### 
# 
# This file contains crystal structure data downloaded from the 
# Cambridge Structural Database (CSD) hosted by the Cambridge 
# Crystallographic Data Centre (CCDC).
# 
# Full information about CCDC data access policies and citation 
# guidelines are available at http://www.ccdc.cam.ac.uk/access/V1 
# 
# Audit and citation data items may have been added by the CCDC. 
# Please retain this information to preserve the provenance of 
# this file and to allow appropriate attribution of the data. 
# 
#######################################################################

data_bp2-79a
_audit_block_doi                 10.5517/ccndlrc
_database_code_depnum_ccdc_archive 'CCDC 607933'
loop_
_citation_id
_citation_doi
_citation_year
1 10.1021/ja057667b 2006
_audit_update_record             
;
2006-05-17 deposited with the CCDC.	2021-12-14 downloaded from the CCDC.
;

_audit_creation_method           SHELXL-97


# CHEMICAL DATA

_chemical_name_systematic        
;
?
;
_chemical_name_common            ?
_chemical_melting_point          ?
_chemical_formula_moiety         Zn(tbip)
_chemical_formula_sum            'C12 H12 O4 Zn'
_chemical_formula_weight         285.59

loop_
_atom_type_symbol
_atom_type_description
_atom_type_scat_dispersion_real
_atom_type_scat_dispersion_imag
_atom_type_scat_source
C C 0.0033 0.0016 'International Tables Vol C Tables 4.2.6.8 and 6.1.1.4'
H H 0.0000 0.0000 'International Tables Vol C Tables 4.2.6.8 and 6.1.1.4'
O O 0.0106 0.0060 'International Tables Vol C Tables 4.2.6.8 and 6.1.1.4'
Zn Zn 0.2839 1.4301 'International Tables Vol C Tables 4.2.6.8 and 6.1.1.4'

_symmetry_cell_setting           trigonal
_symmetry_space_group_name_H-M   R-3m

loop_
_symmetry_equiv_pos_as_xyz
'x, y, z'
'-y, x-y, z'
'-x+y, -x, z'
'y, x, -z'
'x-y, -y, -z'
'-x, -x+y, -z'
'x+2/3, y+1/3, z+1/3'
'-y+2/3, x-y+1/3, z+1/3'
'-x+y+2/3, -x+1/3, z+1/3'
'y+2/3, x+1/3, -z+1/3'
'x-y+2/3, -y+1/3, -z+1/3'
'-x+2/3, -x+y+1/3, -z+1/3'
'x+1/3, y+2/3, z+2/3'
'-y+1/3, x-y+2/3, z+2/3'
'-x+y+1/3, -x+2/3, z+2/3'
'y+1/3, x+2/3, -z+2/3'
'x-y+1/3, -y+2/3, -z+2/3'
'-x+1/3, -x+y+2/3, -z+2/3'
'-x, -y, -z'
'y, -x+y, -z'
'x-y, x, -z'
'-y, -x, z'
'-x+y, y, z'
'x, x-y, z'
'-x+2/3, -y+1/3, -z+1/3'
'y+2/3, -x+y+1/3, -z+1/3'
'x-y+2/3, x+1/3, -z+1/3'
'-y+2/3, -x+1/3, z+1/3'
'-x+y+2/3, y+1/3, z+1/3'
'x+2/3, x-y+1/3, z+1/3'
'-x+1/3, -y+2/3, -z+2/3'
'y+1/3, -x+y+2/3, -z+2/3'
'x-y+1/3, x+2/3, -z+2/3'
'-y+1/3, -x+2/3, z+2/3'
'-x+y+1/3, y+2/3, z+2/3'
'x+1/3, x-y+2/3, z+2/3'

_cell_length_a                   28.863(4)
_cell_length_b                   28.863(4)
_cell_length_c                   7.977(2)
_cell_angle_alpha                90.00
_cell_angle_beta                 90.00
_cell_angle_gamma                120.00
_cell_volume                     5755.1(18)
_cell_formula_units_Z            18
_cell_measurement_temperature    293(2)
_cell_measurement_reflns_used    20
_cell_measurement_theta_min      6.23
_cell_measurement_theta_max      10.06

_exptl_crystal_description       block
_exptl_crystal_colour            colorless
_exptl_crystal_size_max          0.20
_exptl_crystal_size_mid          0.10
_exptl_crystal_size_min          0.06
_exptl_crystal_density_meas      ?
_exptl_crystal_density_diffrn    1.483
_exptl_crystal_density_method    'not measured'
_exptl_crystal_F_000             2628
_exptl_absorpt_coefficient_mu    1.919
_exptl_absorpt_correction_type   psi-scan
_exptl_absorpt_correction_T_min  0.9612
_exptl_absorpt_correction_T_max  0.9984
_exptl_absorpt_process_details   ?

_exptl_special_details           
;
?
;

_diffrn_ambient_temperature      293(2)
_diffrn_radiation_wavelength     0.71073
_diffrn_radiation_type           MoK\a
_diffrn_radiation_source         'fine-focus sealed tube'
_diffrn_radiation_monochromator  graphite
_diffrn_measurement_device_type  'Enraf-Nonius CAD4'
_diffrn_measurement_method       \w
_diffrn_detector_area_resol_mean ?
_diffrn_standards_number         3
_diffrn_standards_interval_count 300
_diffrn_standards_interval_time  120
_diffrn_standards_decay_%        +-4.0
_diffrn_reflns_number            4126
_diffrn_reflns_av_R_equivalents  0.0420
_diffrn_reflns_av_sigmaI/netI    0.0382
_diffrn_reflns_limit_h_min       -35
_diffrn_reflns_limit_h_max       30
_diffrn_reflns_limit_k_min       0
_diffrn_reflns_limit_k_max       35
_diffrn_reflns_limit_l_min       0
_diffrn_reflns_limit_l_max       9
_diffrn_reflns_theta_min         2.44
_diffrn_reflns_theta_max         25.97
_reflns_number_total             1341
_reflns_number_gt                1050
_reflns_threshold_expression     >2sigma(I)

_computing_data_collection       CAD4/PC
_computing_cell_refinement       CAD4/PC
_computing_data_reduction        XCAD4/PC
_computing_structure_solution    'SHELXS-97 (Sheldrick, 1990)'
_computing_structure_refinement  'SHELXL-97 (Sheldrick, 1997)'
_computing_molecular_graphics    'Material Studio'
_computing_publication_material  'Windows Word2003'

_refine_special_details          
;
Refinement of F^2^ against ALL reflections. The weighted R-factor wR and
goodness of fit S are based on F^2^, conventional R-factors R are based
on F, with F set to zero for negative F^2^. The threshold expression of
F^2^ > 2sigma(F^2^) is used only for calculating R-factors(gt) etc. and is
not relevant to the choice of reflections for refinement. R-factors based
on F^2^ are statistically about twice as large as those based on F, and R-
factors based on ALL data will be even larger.
;

_refine_ls_structure_factor_coef Fsqd
_refine_ls_matrix_type           full
_refine_ls_weighting_scheme      calc
_refine_ls_weighting_details     
'calc w=1/[\s^2^(Fo^2^)+(0.0522P)^2^+19.6626P] where P=(Fo^2^+2Fc^2^)/3'
_atom_sites_solution_primary     direct
_atom_sites_solution_secondary   difmap
_atom_sites_solution_hydrogens   geom
_refine_ls_hydrogen_treatment    'not refined'
_refine_ls_extinction_method     none
_refine_ls_extinction_coef       ?
_refine_ls_number_reflns         1050
_refine_ls_number_parameters     97
_refine_ls_number_restraints     0
_refine_ls_R_factor_all          0.0551
_refine_ls_R_factor_gt           0.0329
_refine_ls_wR_factor_ref         0.0967
_refine_ls_wR_factor_gt          0.0870
_refine_ls_goodness_of_fit_ref   1.047
_refine_ls_restrained_S_all      1.047
_refine_ls_shift/su_max          0.000
_refine_ls_shift/su_mean         0.000

loop_
_atom_site_label
_atom_site_type_symbol
_atom_site_fract_x
_atom_site_fract_y
_atom_site_fract_z
_atom_site_U_iso_or_equiv
_atom_site_adp_type
_atom_site_occupancy
_atom_site_symmetry_multiplicity
_atom_site_calc_flag
_atom_site_refinement_flags
_atom_site_disorder_assembly
_atom_site_disorder_group
Zn Zn 0.0000 0.375059(18) 0.0000 0.01488(18) Uani 1 2 d S . .
O1 O 0.04991(10) 0.40157(9) 0.4014(3) 0.0252(6) Uani 1 1 d . . .
O2 O 0.01793(11) 0.42561(10) 0.1830(3) 0.0276(6) Uani 1 1 d . . .
C1 C 0.04052(13) 0.43412(13) 0.3240(4) 0.0181(7) Uani 1 1 d . . .
C2 C 0.05729(13) 0.48705(13) 0.4042(4) 0.0179(7) Uani 1 1 d . . .
C3 C 0.04441(19) 0.52221(10) 0.3271(6) 0.0189(10) Uani 1 2 d S . .
H3A H 0.0272 0.5136 0.2238 0.023 Uiso 1 2 calc SR . .
C4 C 0.08392(13) 0.50062(13) 0.5580(4) 0.0191(7) Uani 1 1 d . . .
H4A H 0.0925 0.4769 0.6092 0.023 Uiso 1 1 calc R . .
C5 C 0.09791(18) 0.54896(9) 0.6362(6) 0.0178(10) Uani 1 2 d S . .
C6 C 0.1280(2) 0.56400(10) 0.8062(6) 0.0223(11) Uani 1 2 d S . .
C7 C 0.1863(4) 0.6085(4) 0.7725(14) 0.063(4) Uani 0.50 1 d P . .
C8A C 0.1241(19) 0.5159(5) 0.896(3) 0.072(10) Uani 0.69(7) 1 d P . .
C8B C 0.0966(18) 0.5153(8) 0.926(2) 0.031(9) Uani 0.31(7) 1 d P . .

loop_
_atom_site_aniso_label
_atom_site_aniso_U_11
_atom_site_aniso_U_22
_atom_site_aniso_U_33
_atom_site_aniso_U_23
_atom_site_aniso_U_13
_atom_site_aniso_U_12
Zn 0.0140(3) 0.0161(2) 0.0138(3) -0.00109(11) -0.0022(2) 0.00702(14)
O1 0.0345(14) 0.0186(12) 0.0264(13) -0.0044(10) -0.0058(11) 0.0163(11)
O2 0.0366(15) 0.0281(14) 0.0212(13) -0.0112(11) -0.0117(11) 0.0186(12)
C1 0.0158(15) 0.0184(17) 0.0190(17) -0.0034(13) 0.0018(13) 0.0076(14)
C2 0.0207(17) 0.0177(17) 0.0155(16) -0.0017(13) -0.0005(14) 0.0097(14)
C3 0.021(2) 0.0192(17) 0.017(2) -0.0015(9) -0.0030(19) 0.0107(12)
C4 0.0221(17) 0.0201(17) 0.0180(17) -0.0002(14) -0.0028(14) 0.0129(14)
C5 0.016(2) 0.0205(18) 0.015(2) -0.0011(9) -0.0022(19) 0.0082(11)
C6 0.028(3) 0.0239(18) 0.017(2) -0.0051(10) -0.010(2) 0.0139(13)
C7 0.043(5) 0.054(7) 0.064(6) 0.006(5) -0.025(5) 0.003(5)
C8A 0.13(2) 0.045(5) 0.045(7) -0.007(4) -0.049(12) 0.044(8)
C8B 0.054(18) 0.024(8) 0.011(7) 0.008(5) -0.006(8) 0.016(8)

_geom_special_details            
;
All esds (except the esd in the dihedral angle between two l.s. planes)
are estimated using the full covariance matrix. The cell esds are taken
into account individually in the estimation of esds in distances, angles
and torsion angles; correlations between esds in cell parameters are only
used when they are defined by crystal symmetry. An approximate (isotropic)
treatment of cell esds is used for estimating esds involving l.s. planes.
;

loop_
_geom_bond_atom_site_label_1
_geom_bond_atom_site_label_2
_geom_bond_distance
_geom_bond_site_symmetry_2
_geom_bond_publ_flag
Zn O1 1.940(2) 10_455 ?
Zn O1 1.940(2) 14_554 ?
Zn O2 1.942(2) . ?
Zn O2 1.942(2) 6 ?
O1 C1 1.261(4) . ?
O1 Zn 1.940(2) 9_455 ?
O2 C1 1.262(4) . ?
C1 C2 1.496(4) . ?
C2 C3 1.387(4) . ?
C2 C4 1.396(4) . ?
C3 C2 1.387(4) 24_565 ?
C4 C5 1.391(4) . ?
C5 C4 1.391(4) 24_565 ?
C5 C6 1.551(6) . ?
C6 C8A 1.516(10) . ?
C6 C8A 1.516(10) 24_565 ?
C6 C7 1.547(10) . ?
C6 C7 1.547(10) 24_565 ?
C6 C8B 1.563(17) . ?
C6 C8B 1.563(17) 24_565 ?
C7 C7 0.89(2) 24_565 ?
C8A C8B 0.821(17) . ?
C8B C8B 1.91(8) 24_565 ?

loop_
_geom_angle_atom_site_label_1
_geom_angle_atom_site_label_2
_geom_angle_atom_site_label_3
_geom_angle
_geom_angle_site_symmetry_1
_geom_angle_site_symmetry_3
_geom_angle_publ_flag
O1 Zn O1 134.61(15) 10_455 14_554 ?
O1 Zn O2 104.23(11) 10_455 . ?
O1 Zn O2 103.36(11) 14_554 . ?
O1 Zn O2 103.35(11) 10_455 6 ?
O1 Zn O2 104.24(11) 14_554 6 ?
O2 Zn O2 103.66(15) . 6 ?
C1 O1 Zn 131.0(2) . 9_455 ?
C1 O2 Zn 137.2(2) . . ?
O1 C1 O2 125.0(3) . . ?
O1 C1 C2 118.1(3) . . ?
O2 C1 C2 116.9(3) . . ?
C3 C2 C4 119.7(3) . . ?
C3 C2 C1 119.3(3) . . ?
C4 C2 C1 120.9(3) . . ?
C2 C3 C2 119.9(4) 24_565 . ?
C5 C4 C2 121.2(3) . . ?
C4 C5 C4 118.2(4) . 24_565 ?
C4 C5 C6 120.9(2) . . ?
C4 C5 C6 120.9(2) 24_565 . ?
C8A C6 C8A 123(3) . 24_565 ?
C8A C6 C7 113.3(19) . . ?
C8A C6 C7 84(2) 24_565 . ?
C8A C6 C7 84(2) . 24_565 ?
C8A C6 C7 113.3(19) 24_565 24_565 ?
C7 C6 C7 33.3(8) . 24_565 ?
C8A C6 C5 112.5(4) . . ?
C8A C6 C5 112.5(4) 24_565 . ?
C7 C6 C5 107.7(5) . . ?
C7 C6 C5 107.7(5) 24_565 . ?
C8A C6 C8B 30.9(6) . . ?
C8A C6 C8B 102(3) 24_565 . ?
C7 C6 C8B 139.0(18) . . ?
C7 C6 C8B 114(2) 24_565 . ?
C5 C6 C8B 107.0(10) . . ?
C8A C6 C8B 102(3) . 24_565 ?
C8A C6 C8B 30.9(6) 24_565 24_565 ?
C7 C6 C8B 114(2) . 24_565 ?
C7 C6 C8B 139.0(18) 24_565 24_565 ?
C5 C6 C8B 107.0(10) . 24_565 ?
C8B C6 C8B 75(4) . 24_565 ?
C7 C7 C6 73.3(4) 24_565 . ?
C8B C8A C6 77.7(16) . . ?
C8A C8B C6 71.4(16) . . ?
C8A C8B C8B 118(2) . 24_565 ?
C6 C8B C8B 52.4(18) . 24_565 ?

_diffrn_measured_fraction_theta_max 0.999
_diffrn_reflns_theta_full        25.97
_diffrn_measured_fraction_theta_full 0.999
_refine_diff_density_max         0.493
_refine_diff_density_min         -0.366
_refine_diff_density_rms         0.091
#==END


