####################################################################### 
# 
# This file contains crystal structure data downloaded from the 
# Cambridge Structural Database (CSD) hosted by the Cambridge 
# Crystallographic Data Centre (CCDC).
# 
# Full information about CCDC data access policies and citation 
# guidelines are available at http://www.ccdc.cam.ac.uk/access/V1 
# 
# Audit and citation data items may have been added by the CCDC. 
# Please retain this information to preserve the provenance of 
# this file and to allow appropriate attribution of the data. 
# 
#######################################################################

data_gz-28_sqd
_audit_block_doi                 10.5517/cc1jm7q3
_database_code_depnum_ccdc_archive 'CCDC 1418675'
loop_
_citation_id
_citation_doi
_citation_year
1 10.1038/srep20672 2016
_audit_update_record             
;
2015-08-14 deposited with the CCDC.	2021-12-15 downloaded from the CCDC.
;
_audit_creation_date             2015-08-14
_audit_creation_method           
;
Olex2 1.2
(compiled 2015.01.26 svn.r3150 for OlexSys, GUI svn.r4998)
;
_chemical_name_common            ?
_chemical_name_systematic        
;
 ? 
;
_chemical_formula_moiety         'C81 H45 Cu3 O15'
_chemical_formula_sum            'C81 H45 Cu3 O15'
_chemical_formula_weight         1448.79
_chemical_melting_point          ?
loop_
_atom_type_symbol
_atom_type_description
_atom_type_scat_dispersion_real
_atom_type_scat_dispersion_imag
_atom_type_scat_source
C C 0.0181 0.0091 'International Tables Vol C Tables 4.2.6.8 and 6.1.1.4'
H H 0.0000 0.0000 'International Tables Vol C Tables 4.2.6.8 and 6.1.1.4'
Cu Cu -1.9646 0.5888 'International Tables Vol C Tables 4.2.6.8 and 6.1.1.4'
O O 0.0492 0.0322 'International Tables Vol C Tables 4.2.6.8 and 6.1.1.4'

_space_group_crystal_system      monoclinic
_space_group_IT_number           15
_space_group_name_H-M_alt        'C 1 2/c 1'
_space_group_name_Hall           '-C 2yc'
loop_
_space_group_symop_id
_space_group_symop_operation_xyz
1 'x, y, z'
2 '-x, y, -z+1/2'
3 'x+1/2, y+1/2, z'
4 '-x+1/2, y+1/2, -z+1/2'
5 '-x, -y, -z'
6 'x, -y, z-1/2'
7 '-x+1/2, -y+1/2, -z'
8 'x+1/2, -y+1/2, z-1/2'

_cell_length_a                   32.0784(13)
_cell_length_b                   18.4491(4)
_cell_length_c                   41.2495(15)
_cell_angle_alpha                90.00
_cell_angle_beta                 118.550(5)
_cell_angle_gamma                90.00
_cell_volume                     21443.8(12)
_cell_formula_units_Z            8
_cell_measurement_reflns_used    ?
_cell_measurement_temperature    293(2)
_cell_measurement_theta_max      ?
_cell_measurement_theta_min      ?
_exptl_absorpt_coefficient_mu    1.055
_exptl_absorpt_correction_T_max  ?
_exptl_absorpt_correction_T_min  ?
_exptl_absorpt_correction_type   ?
_exptl_absorpt_process_details   ?
_exptl_crystal_colour            'clear light green'
_exptl_crystal_colour_lustre     clear
_exptl_crystal_colour_modifier   light
_exptl_crystal_colour_primary    green
_exptl_crystal_density_diffrn    0.898
_exptl_crystal_density_meas      ?
_exptl_crystal_density_method    'not measured'
_exptl_crystal_description       block
_exptl_crystal_F_000             5904
_exptl_crystal_size_max          0.1
_exptl_crystal_size_mid          0.1
_exptl_crystal_size_min          0.08
_exptl_special_details           
;
 ? 
;
_diffrn_reflns_av_R_equivalents  0.0391
_diffrn_reflns_av_unetI/netI     0.0464
_diffrn_reflns_limit_h_max       38
_diffrn_reflns_limit_h_min       -28
_diffrn_reflns_limit_k_max       21
_diffrn_reflns_limit_k_min       -16
_diffrn_reflns_limit_l_max       44
_diffrn_reflns_limit_l_min       -49
_diffrn_reflns_number            35928
_diffrn_reflns_theta_full        67.08
_diffrn_reflns_theta_max         67.08
_diffrn_reflns_theta_min         3.39
_diffrn_ambient_temperature      293(2)
_diffrn_detector_area_resol_mean ?
_diffrn_measured_fraction_theta_full 0.954
_diffrn_measured_fraction_theta_max 0.954
_diffrn_measurement_device_type  'CCD area detector'
_diffrn_measurement_method       'phi and omega scans'
_diffrn_radiation_monochromator  graphite
_diffrn_radiation_type           CuK\a
_diffrn_radiation_wavelength     1.54184
_diffrn_source                   'fine-focus sealed tube'
_diffrn_standards_decay_%        ?
_diffrn_standards_interval_count ?
_diffrn_standards_interval_time  ?
_diffrn_standards_number         ?
_reflns_number_gt                13933
_reflns_number_total             18253
_reflns_threshold_expression     >2sigma(I)
_computing_cell_refinement       ?
_computing_data_collection       ?
_computing_data_reduction        ?
_computing_molecular_graphics    'Olex2 (Dolomanov et al., 2009)'
_computing_publication_material  'Olex2 (Dolomanov et al., 2009)'
_computing_structure_refinement  'XL (Sheldrick, 2008)'
_computing_structure_solution    'SIR2004 (Burla et al., 2007)'
_refine_diff_density_max         1.150
_refine_diff_density_min         -1.236
_refine_diff_density_rms         0.138
_refine_ls_extinction_coef       ?
_refine_ls_extinction_method     none
_refine_ls_goodness_of_fit_ref   1.386
_refine_ls_hydrogen_treatment    constr
_refine_ls_matrix_type           full
_refine_ls_number_parameters     895
_refine_ls_number_reflns         18253
_refine_ls_number_restraints     0
_refine_ls_R_factor_all          0.1318
_refine_ls_R_factor_gt           0.1179
_refine_ls_restrained_S_all      1.386
_refine_ls_shift/su_max          0.001
_refine_ls_shift/su_mean         0.000
_refine_ls_structure_factor_coef Fsqd
_refine_ls_weighting_details     
'calc w=1/[\s^2^(Fo^2^)+(0.2000P)^2^+0.0000P] where P=(Fo^2^+2Fc^2^)/3'
_refine_ls_weighting_scheme      calc
_refine_ls_wR_factor_gt          0.3385
_refine_ls_wR_factor_ref         0.3509
_refine_special_details          
;
 Refinement of F^2^ against ALL reflections.  The weighted R-factor wR and 
 goodness of fit S are based on F^2^, conventional R-factors R are based 
 on F, with F set to zero for negative F^2^. The threshold expression of 
 F^2^ > 2sigma(F^2^) is used only for calculating R-factors(gt) etc. and is 
 not relevant to the choice of reflections for refinement.  R-factors based 
 on F^2^ are statistically about twice as large as those based on F, and R- 
 factors based on ALL data will be even larger. 
;
_olex2_refinement_description    
;
1. Fixed Uiso
 At 1.2 times of:
  All C(H) groups
 At 1.5 times of:
  All O(H,H) groups
2.a Rotating group:
 O12(H12A,H12B), O14(H14A,H14B), O15(H15A,H15B)
2.b Ternary CH refined with riding coordinates:
 C22(H22), C32(H32), C34(H34), C38(H38), C47(H47), C51(H51)
2.c Aromatic/amide H refined with riding coordinates:
 C5(H5), C6(H6), C8(H8), C13(H13), C14(H14), C15(H15), C1C(H1C), C1E(H1E),
 C1M(H1M), C1P(H1P), C1V(H1V), C24(H24), C26(H26), C27(H27), C39(H39), C40(H40),
  C42(H42), C44(H44), C46(H46), C49(H49), C50(H50), C53(H53), C56(H56),
 C60(H60), C62(H62), C64(H64), C66(H66), C69(H69), C70(H70), C71(H71), C73(H73),
  C75(H75), C76(H76)
;
_atom_sites_solution_hydrogens   geom
_atom_sites_solution_primary     direct
_atom_sites_solution_secondary   difmap
loop_
_atom_site_label
_atom_site_type_symbol
_atom_site_fract_x
_atom_site_fract_y
_atom_site_fract_z
_atom_site_U_iso_or_equiv
_atom_site_adp_type
_atom_site_occupancy
_atom_site_calc_flag
_atom_site_disorder_assembly
_atom_site_disorder_group
_atom_site_refinement_flags_posn
Cu1 Cu 0.21781(3) 0.17692(4) 0.221788(18) 0.0346(2) Uani 1 d . . .
Cu2 Cu 0.27816(3) 0.25088(4) 0.280905(18) 0.0365(2) Uani 1 d . . .
Cu3 Cu -0.00605(2) -0.03609(5) 0.279879(19) 0.0380(2) Uani 1 d . . .
O1 O 0.23891(16) 0.3335(2) 0.25171(11) 0.0555(11) Uani 1 d . . .
O2 O 0.18722(15) 0.2702(2) 0.20178(11) 0.0518(10) Uani 1 d . . .
O3 O 0.23385(15) 0.2317(2) 0.29916(10) 0.0488(10) Uani 1 d . . .
O4 O 0.30635(15) 0.1532(2) 0.29937(11) 0.0495(10) Uani 1 d . . .
O5 O 0.04557(14) -0.1090(3) 0.29632(11) 0.0548(11) Uani 1 d . . .
O6 O 0.18310(14) 0.1685(3) 0.24977(10) 0.0497(10) Uani 1 d . . .
O7 O 0.25600(15) 0.0933(2) 0.24852(10) 0.0498(10) Uani 1 d . . .
O8 O 0.05396(15) 0.0358(3) 0.25045(11) 0.0533(11) Uani 1 d . . .
O9 O 0.04207(17) 0.0402(3) 0.29915(13) 0.0588(11) Uani 1 d . . .
O10 O -0.05220(14) -0.1121(3) 0.25548(10) 0.0522(10) Uani 1 d . . .
O11 O 0.26346(15) 0.1984(3) 0.20419(12) 0.0534(10) Uani 1 d . . .
O12 O 0.1720(2) 0.1182(4) 0.17466(15) 0.105(3) Uani 1 d . . .
H12A H 0.1778 0.0759 0.1688 0.157 Uiso 1 d . . GR
H12B H 0.1443 0.1323 0.1580 0.157 Uiso 1 d . . GR
O13 O 0.31552(15) 0.2609(3) 0.25529(12) 0.0570(11) Uani 1 d . . .
O14 O 0.32708(19) 0.3037(3) 0.33083(14) 0.0821(17) Uani 1 d . . .
H14A H 0.3229 0.3109 0.3503 0.123 Uiso 1 d . . GR
H14B H 0.3548 0.3221 0.3354 0.123 Uiso 1 d . . GR
O15 O -0.0111(3) -0.0381(4) 0.32889(17) 0.097(2) Uani 1 d . . .
H15A H -0.0048 -0.0005 0.3447 0.146 Uiso 1 d . . GR
H15B H -0.0200 -0.0767 0.3378 0.146 Uiso 1 d . . GR
C16 C 0.06530(17) 0.0554(4) 0.28137(14) 0.0417(13) Uani 1 d . . .
C17 C 0.20119(16) -0.2592(3) 0.27753(13) 0.0350(11) Uani 1 d . . .
C18 C 0.2248(2) -0.2570(3) 0.46139(16) 0.0420(12) Uani 1 d . . .
C19 C 0.19260(19) 0.2159(3) 0.42408(15) 0.0435(12) Uani 1 d . . .
C20 C 0.20397(15) 0.3295(3) 0.21981(14) 0.0329(10) Uani 1 d . . .
C78 C 0.18350(19) 0.3987(3) 0.20078(14) 0.0419(12) Uani 1 d . . .
C1 C 0.1680(2) 0.1759(3) 0.29978(15) 0.0423(12) Uani 1 d . . .
C2 C 0.28755(19) 0.1002(3) 0.28127(13) 0.0375(12) Uani 1 d . . .
C3 C 0.46940(18) -0.0131(3) 0.46231(14) 0.0380(11) Uani 1 d . . .
C4 C 0.2195(2) 0.2341(3) 0.46158(16) 0.0448(12) Uani 1 d . . .
C5 C 0.12867(18) 0.1323(3) 0.28228(14) 0.0401(12) Uani 1 d . . .
H5 H 0.1187 0.1174 0.2581 0.048 Uiso 1 calc . . R
C6 C 0.29806(18) -0.0361(3) 0.28154(15) 0.0414(12) Uani 1 d . . .
H6 H 0.2747 -0.0362 0.2569 0.050 Uiso 1 calc . . R
C7 C 0.10373(17) 0.1101(3) 0.30023(14) 0.0397(11) Uani 1 d . . .
C8 C 0.12043(19) -0.2017(3) 0.33202(16) 0.0465(13) Uani 1 d . . .
H8 H 0.1033 -0.1885 0.3440 0.056 Uiso 1 calc . . R
C9 C 0.06376(19) -0.1303(3) 0.27714(14) 0.0427(13) Uani 1 d . . .
C10 C 0.1741(2) 0.1996(4) 0.39217(15) 0.0496(14) Uani 1 d . . .
C11 C 0.5015(2) -0.0637(3) 0.48406(17) 0.0464(13) Uani 1 d . . .
C12 C 0.19694(19) 0.1956(3) 0.28124(14) 0.0386(11) Uani 1 d . . .
C13 C 0.3530(2) -0.1014(3) 0.33627(15) 0.0450(13) Uani 1 d . . .
H13 H 0.3654 -0.1448 0.3486 0.054 Uiso 1 calc . . R
C14 C 0.3495(2) 0.0284(3) 0.33571(15) 0.0433(12) Uani 1 d . . .
H14 H 0.3601 0.0725 0.3478 0.052 Uiso 1 calc . . R
C15 C 0.1177(2) 0.1341(4) 0.33629(15) 0.0455(13) Uani 1 d . . .
H15 H 0.1008 0.1200 0.3483 0.055 Uiso 1 calc . . R
C1A C 0.10413(19) -0.1794(4) 0.29518(15) 0.0454(13) Uani 1 d . . .
C1B C 0.2492(2) 0.4235(3) 0.4607(2) 0.0525(15) Uani 1 d . . .
C1C C 0.1295(2) -0.2045(3) 0.27695(16) 0.0453(13) Uani 1 d . . .
H1C H 0.1180 -0.1943 0.2520 0.054 Uiso 1 calc . . R
C1D C 0.4353(2) -0.0248(3) 0.42386(15) 0.0426(12) Uani 1 d . . .
C1E C 0.1833(2) 0.1987(3) 0.33617(14) 0.0441(13) Uani 1 d . . .
H1E H 0.2106 0.2267 0.3484 0.053 Uiso 1 calc . . R
C1F C 0.1708(2) -0.2438(3) 0.29569(16) 0.0443(13) Uani 1 d . . .
C1G C 0.2004(2) -0.2480(3) 0.48130(19) 0.0509(15) Uani 1 d . . .
C1H C 0.3133(2) 0.0273(3) 0.29930(16) 0.0427(12) Uani 1 d . . .
C1I C 0.3701(2) -0.0353(3) 0.35407(15) 0.0440(13) Uani 1 d . . .
C1J C 0.1994(2) -0.2601(3) 0.42143(17) 0.0479(13) Uani 1 d . . .
C1K C 0.2511(2) 0.2944(4) 0.47395(17) 0.0481(13) Uani 1 d . . .
C1L C 0.5005(2) -0.1943(3) 0.4970(2) 0.0545(16) Uani 1 d . . .
C1M C 0.1859(2) -0.2643(4) 0.33230(18) 0.0522(15) Uani 1 d . . .
H1M H 0.2129 -0.2929 0.3444 0.063 Uiso 1 calc . . R
C1N C 0.4067(2) -0.0324(3) 0.39215(16) 0.0428(12) Uani 1 d . . .
C1O C 0.5323(2) -0.1828(4) 0.5334(2) 0.0628(19) Uani 1 d . . .
C1P C 0.5343(4) -0.2265(5) 0.5602(3) 0.084(3) Uani 1 d . . .
H1P H 0.5569 -0.2201 0.5848 0.101 Uiso 1 calc . . R
C1Q C 0.2790(2) 0.4373(3) 0.4970(2) 0.0516(15) Uani 1 d . . .
C1R C 0.2205(2) 0.1930(3) 0.49087(17) 0.0449(13) Uani 1 d . . .
C1S C 0.3390(3) 0.3560(3) 0.4941(2) 0.0616(19) Uani 1 d . . .
C1T C 0.46865(18) 0.0534(3) 0.47927(15) 0.0376(11) Uani 1 d . . .
C1U C 0.2746(2) -0.2588(3) 0.47993(19) 0.0509(14) Uani 1 d . . .
C1V C 0.6381(2) -0.1332(4) 0.5283(2) 0.0556(16) Uani 1 d . . .
H1V H 0.6595 -0.1277 0.5533 0.067 Uiso 1 calc . . R
C21 C 0.1571(2) 0.1790(3) 0.35393(15) 0.0463(13) Uani 1 d . . .
C22 C 0.2558(2) 0.3480(4) 0.44711(19) 0.0540(15) Uani 1 d . . .
H22 H 0.2342 0.3384 0.4210 0.065 Uiso 1 calc . . R
C23 C 0.1389(2) -0.1704(4) 0.4798(2) 0.0608(17) Uani 1 d . . .
C24 C 0.3850(3) 0.3526(4) 0.5049(3) 0.068(2) Uani 1 d . . .
H24 H 0.4065 0.3602 0.5296 0.082 Uiso 1 calc . . R
C25 C 0.1637(2) -0.1601(4) 0.5189(2) 0.0547(15) Uani 1 d . . .
C26 C 0.1080(3) -0.1134(4) 0.4564(3) 0.087(3) Uani 1 d . . .
H26 H 0.0911 -0.1171 0.4308 0.105 Uiso 1 calc . . R
C27 C 0.1548(3) -0.3493(6) 0.5465(3) 0.087(3) Uani 1 d . . .
H27 H 0.1720 -0.3459 0.5721 0.104 Uiso 1 calc . . R
C28 C 0.1618(2) -0.2432(4) 0.35091(17) 0.0504(14) Uani 1 d . . .
C29 C 0.1800(2) -0.2565(4) 0.38886(19) 0.0543(15) Uani 1 d . . .
C30 C 0.1608(2) -0.2944(4) 0.5243(2) 0.0530(15) Uani 1 d . . .
C31 C 0.5580(2) -0.1429(4) 0.4785(2) 0.0569(16) Uani 1 d . . .
C32 C 0.1460(2) -0.2419(4) 0.4657(2) 0.0562(16) Uani 1 d . . .
H32 H 0.1281 -0.2464 0.4388 0.067 Uiso 1 calc . . R
C34 C 0.5068(3) -0.1403(3) 0.47050(19) 0.0551(15) Uani 1 d . . .
H34 H 0.4842 -0.1489 0.4444 0.066 Uiso 1 calc . . R
C36 C 0.1355(2) -0.3008(4) 0.4856(2) 0.0601(17) Uani 1 d . . .
C38 C 0.3128(3) 0.3728(4) 0.5163(2) 0.0574(16) Uani 1 d . . .
H38 H 0.3342 0.3814 0.5426 0.069 Uiso 1 calc . . R
C39 C 0.2787(3) 0.5035(5) 0.5134(3) 0.070(2) Uani 1 d . . .
H39 H 0.3005 0.5138 0.5378 0.084 Uiso 1 calc . . R
C40 C 0.4678(3) -0.2489(4) 0.4867(3) 0.070(2) Uani 1 d . . .
H40 H 0.4459 -0.2549 0.4619 0.083 Uiso 1 calc . . R
C42 C 0.2142(3) 0.4765(5) 0.4391(3) 0.084(2) Uani 1 d . . .
H42 H 0.1932 0.4677 0.4143 0.100 Uiso 1 calc . . R
C44 C 0.5761(4) -0.1591(5) 0.4545(3) 0.081(2) Uani 1 d . . .
H44 H 0.5554 -0.1705 0.4300 0.097 Uiso 1 calc . . R
C45 C 0.3088(3) 0.3458(4) 0.4579(3) 0.073(2) Uani 1 d . . .
C46 C 0.3234(4) 0.3341(6) 0.4323(3) 0.093(3) Uani 1 d . . .
H46 H 0.3013 0.3297 0.4074 0.112 Uiso 1 calc . . R
C47 C 0.5658(2) -0.1187(4) 0.53865(19) 0.0578(16) Uani 1 d . . .
H47 H 0.5882 -0.1101 0.5647 0.069 Uiso 1 calc . . R
C48 C 0.5896(2) -0.1314(4) 0.5170(2) 0.0623(17) Uani 1 d . . .
C49 C 0.1581(3) -0.1019(7) 0.5339(3) 0.094(3) Uani 1 d . . .
H49 H 0.1739 -0.0996 0.5595 0.112 Uiso 1 calc . . R
C50 C 0.2443(3) 0.5527(4) 0.4915(3) 0.071(2) Uani 1 d . . .
H50 H 0.2424 0.5970 0.5014 0.086 Uiso 1 calc . . R
C51 C 0.1939(3) -0.2306(4) 0.5377(2) 0.0663(19) Uani 1 d . . .
H51 H 0.2117 -0.2273 0.5646 0.080 Uiso 1 calc . . R
C53 C 0.5006(3) -0.2822(5) 0.5494(4) 0.089(3) Uani 1 d . . .
H53 H 0.5004 -0.3125 0.5674 0.107 Uiso 1 calc . . R
C56 C 0.4666(3) -0.2938(5) 0.5118(4) 0.086(3) Uani 1 d . . .
H56 H 0.4445 -0.3310 0.5049 0.104 Uiso 1 calc . . R
C60 C 0.1063(4) -0.0536(4) 0.4755(4) 0.097(4) Uani 1 d . . .
H60 H 0.0873 -0.0151 0.4619 0.116 Uiso 1 calc . . R
C62 C 0.6248(4) -0.1583(6) 0.4670(4) 0.107(4) Uani 1 d . . .
H62 H 0.6365 -0.1681 0.4507 0.129 Uiso 1 calc . . R
C64 C 0.3688(4) 0.3291(6) 0.4429(4) 0.109(4) Uani 1 d . . .
H64 H 0.3788 0.3196 0.4255 0.130 Uiso 1 calc . . R
C66 C 0.4024(4) 0.3378(5) 0.4797(4) 0.091(3) Uani 1 d . . .
H66 H 0.4348 0.3341 0.4875 0.109 Uiso 1 calc . . R
C69 C 0.1043(3) -0.3576(5) 0.4700(3) 0.086(3) Uani 1 d . . .
H69 H 0.0863 -0.3613 0.4445 0.103 Uiso 1 calc . . R
C70 C 0.1001(4) -0.4087(7) 0.4924(3) 0.103(3) Uani 1 d . . .
H70 H 0.0798 -0.4476 0.4814 0.124 Uiso 1 calc . . R
C71 C 0.1253(3) -0.4051(5) 0.5314(3) 0.084(3) Uani 1 d . . .
H71 H 0.1213 -0.4402 0.5459 0.101 Uiso 1 calc . . R
C73 C 0.2120(4) 0.5369(5) 0.4544(4) 0.095(3) Uani 1 d . . .
H73 H 0.1886 0.5706 0.4405 0.114 Uiso 1 calc . . R
C75 C 0.6558(3) -0.1430(6) 0.5036(3) 0.084(3) Uani 1 d . . .
H75 H 0.6882 -0.1393 0.5117 0.100 Uiso 1 calc . . R
C76 C 0.1323(3) -0.0459(5) 0.5161(4) 0.088(3) Uani 1 d . . .
H76 H 0.1304 -0.0043 0.5281 0.106 Uiso 1 calc . . R

loop_
_atom_site_aniso_label
_atom_site_aniso_U_11
_atom_site_aniso_U_22
_atom_site_aniso_U_33
_atom_site_aniso_U_23
_atom_site_aniso_U_13
_atom_site_aniso_U_12
Cu1 0.0401(4) 0.0290(4) 0.0269(4) -0.0017(3) 0.0098(3) -0.0097(3)
Cu2 0.0419(4) 0.0304(4) 0.0269(4) -0.0013(3) 0.0080(3) -0.0094(3)
Cu3 0.0336(4) 0.0535(5) 0.0284(4) 0.0014(3) 0.0161(3) 0.0027(3)
O1 0.070(3) 0.032(2) 0.038(2) -0.0048(16) 0.0037(19) -0.0074(19)
O2 0.054(2) 0.042(2) 0.041(2) -0.0046(18) 0.0076(18) -0.0051(18)
O3 0.054(2) 0.052(2) 0.0376(19) -0.0021(18) 0.0205(17) -0.0155(19)
O4 0.055(2) 0.036(2) 0.0398(19) 0.0058(17) 0.0076(17) -0.0022(17)
O5 0.048(2) 0.069(3) 0.047(2) 0.004(2) 0.0216(18) 0.011(2)
O6 0.051(2) 0.062(3) 0.0360(19) -0.0090(19) 0.0206(17) -0.018(2)
O7 0.057(2) 0.038(2) 0.0324(18) 0.0037(16) 0.0034(17) -0.0040(17)
O8 0.047(2) 0.071(3) 0.038(2) -0.011(2) 0.0173(17) -0.020(2)
O9 0.061(3) 0.064(3) 0.051(2) -0.014(2) 0.027(2) -0.014(2)
O10 0.047(2) 0.068(3) 0.0359(19) 0.001(2) 0.0153(16) -0.012(2)
O11 0.053(2) 0.054(3) 0.053(2) -0.008(2) 0.0245(19) -0.021(2)
O12 0.111(5) 0.086(4) 0.057(3) -0.017(3) -0.009(3) -0.044(4)
O13 0.053(2) 0.064(3) 0.050(2) 0.010(2) 0.0215(19) -0.014(2)
O14 0.075(3) 0.085(4) 0.058(3) -0.038(3) 0.008(2) -0.028(3)
O15 0.132(6) 0.126(6) 0.070(4) 0.008(4) 0.078(4) 0.004(5)
C16 0.030(2) 0.066(4) 0.033(2) 0.003(2) 0.0181(19) -0.026(2)
C17 0.030(2) 0.045(3) 0.029(2) 0.003(2) 0.0140(19) 0.015(2)
C18 0.045(3) 0.030(3) 0.051(3) 0.003(2) 0.023(2) 0.005(2)
C19 0.043(3) 0.041(3) 0.043(3) -0.001(2) 0.019(2) 0.006(2)
C20 0.0193(18) 0.042(3) 0.041(2) -0.005(2) 0.0171(18) -0.0008(18)
C78 0.048(3) 0.035(3) 0.032(2) 0.000(2) 0.010(2) -0.012(2)
C1 0.053(3) 0.034(3) 0.039(3) -0.001(2) 0.022(2) 0.004(2)
C2 0.050(3) 0.019(2) 0.031(2) 0.0039(19) 0.009(2) -0.011(2)
C3 0.035(2) 0.042(3) 0.031(2) 0.000(2) 0.011(2) -0.001(2)
C4 0.051(3) 0.038(3) 0.047(3) 0.004(2) 0.024(2) 0.012(2)
C5 0.039(2) 0.044(3) 0.033(2) 0.000(2) 0.014(2) -0.004(2)
C6 0.036(2) 0.045(3) 0.039(3) 0.008(2) 0.015(2) 0.011(2)
C7 0.030(2) 0.044(3) 0.040(3) -0.009(2) 0.013(2) -0.003(2)
C8 0.037(3) 0.053(3) 0.048(3) -0.003(3) 0.019(2) 0.008(2)
C9 0.039(2) 0.055(3) 0.029(2) -0.005(2) 0.012(2) -0.007(2)
C10 0.055(3) 0.055(4) 0.031(3) -0.004(3) 0.015(2) -0.002(3)
C11 0.045(3) 0.032(3) 0.058(3) -0.002(3) 0.021(3) 0.002(2)
C12 0.044(3) 0.032(3) 0.034(2) 0.001(2) 0.014(2) 0.000(2)
C13 0.052(3) 0.036(3) 0.038(3) -0.004(2) 0.015(2) 0.000(2)
C14 0.059(3) 0.026(3) 0.038(3) 0.000(2) 0.018(2) 0.000(2)
C15 0.043(3) 0.056(4) 0.038(3) -0.004(3) 0.020(2) -0.005(3)
C1A 0.039(3) 0.057(3) 0.041(3) -0.010(3) 0.019(2) -0.006(2)
C1B 0.054(3) 0.034(3) 0.072(4) 0.002(3) 0.032(3) 0.003(3)
C1C 0.049(3) 0.046(3) 0.042(3) -0.013(2) 0.023(2) 0.000(3)
C1D 0.051(3) 0.034(3) 0.035(3) 0.001(2) 0.015(2) 0.004(2)
C1E 0.045(3) 0.045(3) 0.030(2) -0.006(2) 0.007(2) 0.000(2)
C1F 0.041(3) 0.048(3) 0.041(3) -0.007(2) 0.018(2) 0.002(2)
C1G 0.041(3) 0.040(3) 0.070(4) 0.013(3) 0.024(3) 0.001(2)
C1H 0.050(3) 0.034(3) 0.041(3) 0.004(2) 0.019(2) 0.006(2)
C1I 0.049(3) 0.036(3) 0.034(3) 0.000(2) 0.009(2) 0.002(2)
C1J 0.050(3) 0.045(3) 0.049(3) 0.003(3) 0.023(3) 0.005(3)
C1K 0.048(3) 0.048(3) 0.054(3) 0.008(3) 0.028(3) 0.010(3)
C1L 0.046(3) 0.023(3) 0.085(5) 0.010(3) 0.024(3) 0.009(2)
C1M 0.043(3) 0.049(3) 0.058(4) -0.010(3) 0.019(3) 0.007(3)
C1N 0.050(3) 0.027(2) 0.046(3) 0.006(2) 0.018(3) 0.008(2)
C1O 0.052(3) 0.040(3) 0.082(5) 0.032(3) 0.021(3) 0.010(3)
C1P 0.099(6) 0.075(6) 0.096(6) 0.041(5) 0.060(5) 0.025(5)
C1Q 0.052(3) 0.034(3) 0.080(4) 0.007(3) 0.040(3) 0.001(3)
C1R 0.046(3) 0.034(3) 0.064(4) 0.000(3) 0.034(3) 0.000(2)
C1S 0.069(4) 0.030(3) 0.109(6) -0.018(3) 0.062(4) -0.015(3)
C1T 0.038(2) 0.023(2) 0.044(3) 0.002(2) 0.014(2) 0.0044(19)
C1U 0.050(3) 0.039(3) 0.071(4) -0.003(3) 0.035(3) -0.003(3)
C1V 0.049(3) 0.045(3) 0.082(5) 0.008(3) 0.039(3) 0.012(3)
C21 0.053(3) 0.044(3) 0.038(3) -0.011(2) 0.019(2) -0.001(3)
C22 0.066(4) 0.046(3) 0.063(4) 0.004(3) 0.041(3) 0.001(3)
C23 0.048(3) 0.055(4) 0.080(5) 0.003(4) 0.031(3) 0.016(3)
C24 0.066(4) 0.040(3) 0.108(6) 0.009(4) 0.048(4) 0.010(3)
C25 0.043(3) 0.058(4) 0.071(4) -0.004(3) 0.033(3) 0.008(3)
C26 0.070(4) 0.048(4) 0.164(9) 0.039(5) 0.072(6) 0.020(4)
C27 0.092(6) 0.103(7) 0.100(6) 0.021(6) 0.075(5) 0.017(5)
C28 0.039(3) 0.056(4) 0.048(3) -0.009(3) 0.013(2) 0.001(3)
C29 0.044(3) 0.057(4) 0.060(4) -0.001(3) 0.023(3) 0.006(3)
C30 0.050(3) 0.047(3) 0.074(4) 0.007(3) 0.039(3) 0.001(3)
C31 0.048(3) 0.044(3) 0.078(4) -0.001(3) 0.030(3) -0.003(3)
C32 0.044(3) 0.063(4) 0.063(4) 0.000(3) 0.026(3) -0.001(3)
C34 0.072(4) 0.032(3) 0.061(4) -0.001(3) 0.031(3) 0.001(3)
C36 0.037(3) 0.063(4) 0.081(5) 0.008(4) 0.029(3) 0.006(3)
C38 0.063(4) 0.042(3) 0.076(4) -0.003(3) 0.040(3) 0.000(3)
C39 0.072(4) 0.066(5) 0.085(5) -0.011(4) 0.047(4) -0.008(4)
C40 0.058(4) 0.057(4) 0.099(6) -0.025(4) 0.041(4) -0.001(3)
C42 0.084(6) 0.078(6) 0.082(6) 0.016(5) 0.034(5) 0.003(5)
C44 0.104(6) 0.076(5) 0.076(5) 0.017(4) 0.054(5) 0.019(5)
C45 0.109(6) 0.048(4) 0.091(6) 0.001(4) 0.073(5) -0.004(4)
C46 0.115(7) 0.095(7) 0.104(7) 0.032(6) 0.080(6) 0.016(6)
C47 0.057(3) 0.051(4) 0.056(3) 0.011(3) 0.019(3) 0.025(3)
C48 0.052(3) 0.054(4) 0.076(4) 0.005(3) 0.026(3) 0.006(3)
C49 0.068(5) 0.113(8) 0.109(7) -0.014(7) 0.049(5) -0.025(6)
C50 0.066(4) 0.034(3) 0.125(7) -0.002(4) 0.054(5) 0.009(3)
C51 0.056(4) 0.070(5) 0.082(5) 0.015(4) 0.040(4) 0.019(3)
C53 0.085(6) 0.057(5) 0.145(9) 0.034(5) 0.072(7) 0.012(4)
C56 0.085(6) 0.050(4) 0.165(10) 0.018(5) 0.094(7) 0.011(4)
C60 0.091(6) 0.037(4) 0.206(13) 0.033(6) 0.107(8) 0.019(4)
C62 0.122(9) 0.081(7) 0.151(11) 0.024(7) 0.093(9) 0.048(7)
C64 0.091(7) 0.092(8) 0.160(12) 0.024(8) 0.075(8) 0.022(6)
C66 0.095(6) 0.052(4) 0.153(10) 0.009(5) 0.081(7) -0.006(4)
C69 0.072(5) 0.079(6) 0.106(7) 0.013(5) 0.044(5) -0.011(4)
C70 0.105(7) 0.108(8) 0.118(8) 0.004(7) 0.071(7) -0.043(6)
C71 0.079(5) 0.068(5) 0.120(8) 0.019(5) 0.059(5) -0.004(4)
C73 0.106(7) 0.061(5) 0.129(9) 0.011(5) 0.066(7) 0.026(5)
C75 0.050(4) 0.093(7) 0.116(7) -0.001(6) 0.045(5) 0.014(4)
C76 0.077(5) 0.052(5) 0.175(11) -0.013(6) 0.091(7) -0.002(4)

_geom_special_details            
;
 All esds (except the esd in the dihedral angle between two l.s. planes) 
 are estimated using the full covariance matrix.  The cell esds are taken 
 into account individually in the estimation of esds in distances, angles 
 and torsion angles; correlations between esds in cell parameters are only 
 used when they are defined by crystal symmetry.  An approximate (isotropic) 
 treatment of cell esds is used for estimating esds involving l.s. planes. 
;
loop_
_geom_bond_atom_site_label_1
_geom_bond_atom_site_label_2
_geom_bond_distance
_geom_bond_site_symmetry_2
_geom_bond_publ_flag
Cu1 Cu2 2.6539(10) . ?
Cu1 O2 1.958(4) . ?
Cu1 O6 1.956(4) . ?
Cu1 O7 1.951(4) . ?
Cu1 O11 1.961(4) . ?
Cu1 O12 2.093(5) . ?
Cu2 O1 1.977(4) . ?
Cu2 O3 1.932(4) . ?
Cu2 O4 1.997(4) . ?
Cu2 O13 1.949(5) . ?
Cu2 O14 2.137(4) . ?
Cu3 Cu3 2.6724(14) 2 ?
Cu3 O5 1.985(4) . ?
Cu3 O8 1.962(4) 2 ?
Cu3 O9 1.955(5) . ?
Cu3 O10 1.936(4) . ?
Cu3 O15 2.105(5) . ?
O1 C20 1.258(6) . ?
O2 C20 1.286(7) . ?
O3 C12 1.248(7) . ?
O4 C2 1.203(6) . ?
O5 C9 1.250(7) . ?
O6 C12 1.257(7) . ?
O7 C2 1.248(6) . ?
O8 Cu3 1.962(4) 2 ?
O8 C16 1.202(7) . ?
O9 C16 1.302(7) . ?
O10 C9 1.258(7) 2 ?
O11 C17 1.284(6) 4 ?
O13 C17 1.251(7) 4 ?
C16 C7 1.492(7) . ?
C17 O11 1.284(6) 4_545 ?
C17 O13 1.251(7) 4_545 ?
C17 C1F 1.513(7) . ?
C18 C1G 1.387(9) . ?
C18 C1J 1.449(8) . ?
C18 C1U 1.404(8) . ?
C19 C4 1.405(8) . ?
C19 C10 1.195(8) . ?
C20 C78 1.479(8) . ?
C78 C6 1.384(8) 4 ?
C78 C13 1.413(7) 4 ?
C1 C5 1.375(8) . ?
C1 C12 1.503(8) . ?
C1 C1E 1.403(7) . ?
C2 C1H 1.566(7) . ?
C3 C11 1.362(8) . ?
C3 C1D 1.449(7) . ?
C3 C1T 1.418(8) . ?
C4 C1K 1.424(9) . ?
C4 C1R 1.414(8) . ?
C5 C7 1.386(8) . ?
C6 C78 1.384(8) 4_545 ?
C6 C1H 1.343(8) . ?
C7 C15 1.404(8) . ?
C8 C1A 1.412(8) . ?
C8 C28 1.402(8) . ?
C9 O10 1.258(7) 2 ?
C9 C1A 1.459(8) . ?
C10 C21 1.452(8) . ?
C11 C1T 1.363(8) 5_656 ?
C11 C34 1.559(8) . ?
C13 C78 1.413(7) 4_545 ?
C13 C1I 1.393(8) . ?
C14 C1H 1.392(8) . ?
C14 C1I 1.383(8) . ?
C15 C21 1.390(8) . ?
C1A C1C 1.423(8) . ?
C1B C1Q 1.360(10) . ?
C1B C22 1.554(9) . ?
C1B C42 1.433(11) . ?
C1C C1F 1.380(8) . ?
C1D C1N 1.193(8) . ?
C1E C21 1.403(9) . ?
C1F C1M 1.400(9) . ?
C1G C1U 1.411(10) 7_546 ?
C1G C32 1.550(8) . ?
C1I C1N 1.444(8) . ?
C1J C29 1.182(9) . ?
C1K C1R 1.314(9) 7_556 ?
C1K C22 1.545(9) . ?
C1L C1O 1.370(10) . ?
C1L C34 1.561(10) . ?
C1L C40 1.368(10) . ?
C1M C28 1.380(9) . ?
C1O C1P 1.346(10) . ?
C1O C47 1.540(10) . ?
C1P C53 1.400(14) . ?
C1Q C38 1.549(9) . ?
C1Q C39 1.399(11) . ?
C1R C1K 1.314(9) 7_556 ?
C1R C38 1.548(9) 7_556 ?
C1S C24 1.321(10) . ?
C1S C38 1.544(10) . ?
C1S C45 1.352(12) . ?
C1T C11 1.363(8) 5_656 ?
C1T C47 1.562(7) 5_656 ?
C1U C1G 1.411(10) 7_546 ?
C1U C51 1.512(10) 7_546 ?
C1V C48 1.396(9) . ?
C1V C75 1.394(11) . ?
C22 C45 1.540(11) . ?
C23 C25 1.427(10) . ?
C23 C26 1.451(10) . ?
C23 C32 1.504(10) . ?
C24 C66 1.423(13) . ?
C25 C49 1.294(13) . ?
C25 C51 1.586(10) . ?
C26 C60 1.373(15) . ?
C27 C30 1.438(11) . ?
C27 C71 1.335(14) . ?
C28 C29 1.406(9) . ?
C30 C36 1.408(10) . ?
C30 C51 1.503(11) . ?
C31 C34 1.513(9) . ?
C31 C44 1.399(11) . ?
C31 C48 1.435(11) . ?
C32 C36 1.496(10) . ?
C36 C69 1.377(12) . ?
C38 C1R 1.548(9) 7_556 ?
C39 C50 1.380(12) . ?
C40 C56 1.340(13) . ?
C42 C73 1.298(14) . ?
C44 C62 1.392(14) . ?
C45 C46 1.362(12) . ?
C46 C64 1.308(14) . ?
C47 C1T 1.562(7) 5_656 ?
C47 C48 1.443(11) . ?
C49 C76 1.308(15) . ?
C50 C73 1.409(15) . ?
C51 C1U 1.512(10) 7_546 ?
C53 C56 1.423(15) . ?
C60 C76 1.477(17) . ?
C62 C75 1.385(16) . ?
C64 C66 1.389(17) . ?
C69 C70 1.369(13) . ?
C70 C71 1.415(15) . ?

loop_
_geom_angle_atom_site_label_1
_geom_angle_atom_site_label_2
_geom_angle_atom_site_label_3
_geom_angle
_geom_angle_site_symmetry_1
_geom_angle_site_symmetry_3
_geom_angle_publ_flag
O2 Cu1 Cu2 86.20(11) . . ?
O2 Cu1 O11 88.8(2) . . ?
O2 Cu1 O12 94.3(2) . . ?
O6 Cu1 Cu2 82.51(11) . . ?
O6 Cu1 O2 90.4(2) . . ?
O6 Cu1 O11 166.22(17) . . ?
O6 Cu1 O12 99.3(3) . . ?
O7 Cu1 Cu2 84.39(11) . . ?
O7 Cu1 O2 170.56(16) . . ?
O7 Cu1 O6 89.1(2) . . ?
O7 Cu1 O11 89.5(2) . . ?
O7 Cu1 O12 95.0(2) . . ?
O11 Cu1 Cu2 83.71(12) . . ?
O11 Cu1 O12 94.5(3) . . ?
O12 Cu1 Cu2 178.1(2) . . ?
O1 Cu2 Cu1 82.20(11) . . ?
O1 Cu2 O4 165.58(16) . . ?
O1 Cu2 O14 101.3(2) . . ?
O3 Cu2 Cu1 85.11(12) . . ?
O3 Cu2 O1 90.3(2) . . ?
O3 Cu2 O4 88.28(19) . . ?
O3 Cu2 O13 170.40(18) . . ?
O3 Cu2 O14 92.6(2) . . ?
O4 Cu2 Cu1 83.39(11) . . ?
O4 Cu2 O14 93.1(2) . . ?
O13 Cu2 Cu1 85.29(14) . . ?
O13 Cu2 O1 88.5(2) . . ?
O13 Cu2 O4 90.5(2) . . ?
O13 Cu2 O14 96.9(2) . . ?
O14 Cu2 Cu1 175.87(18) . . ?
O5 Cu3 Cu3 81.36(12) . 2 ?
O5 Cu3 O15 95.4(2) . . ?
O8 Cu3 Cu3 80.02(13) 2 2 ?
O8 Cu3 O5 161.38(18) 2 . ?
O8 Cu3 O15 103.2(2) 2 . ?
O9 Cu3 Cu3 86.60(14) . 2 ?
O9 Cu3 O5 88.9(2) . . ?
O9 Cu3 O8 89.9(2) . 2 ?
O9 Cu3 O15 91.7(3) . . ?
O10 Cu3 Cu3 86.13(12) . 2 ?
O10 Cu3 O5 89.6(2) . . ?
O10 Cu3 O8 89.3(2) . 2 ?
O10 Cu3 O9 172.72(19) . . ?
O10 Cu3 O15 95.5(2) . . ?
O15 Cu3 Cu3 176.4(2) . 2 ?
C20 O1 Cu2 125.5(4) . . ?
C20 O2 Cu1 121.1(3) . . ?
C12 O3 Cu2 122.2(4) . . ?
C2 O4 Cu2 119.7(3) . . ?
C9 O5 Cu3 124.2(4) . . ?
C12 O6 Cu1 123.9(4) . . ?
C2 O7 Cu1 119.7(4) . . ?
C16 O8 Cu3 128.8(4) . 2 ?
C16 O9 Cu3 118.6(4) . . ?
C9 O10 Cu3 120.7(4) 2 . ?
C17 O11 Cu1 120.8(4) 4 . ?
C17 O13 Cu2 120.2(3) 4 . ?
O8 C16 O9 124.7(5) . . ?
O8 C16 C7 120.8(4) . . ?
O9 C16 C7 113.9(5) . . ?
O11 C17 C1F 114.9(5) 4_545 . ?
O13 C17 O11 128.2(5) 4_545 4_545 ?
O13 C17 C1F 115.8(4) 4_545 . ?
C1G C18 C1J 120.7(5) . . ?
C1G C18 C1U 119.8(6) . . ?
C1U C18 C1J 119.5(6) . . ?
C10 C19 C4 173.2(6) . . ?
O1 C20 O2 124.9(5) . . ?
O1 C20 C78 116.8(5) . . ?
O2 C20 C78 118.1(4) . . ?
C6 C78 C20 120.1(5) 4 . ?
C6 C78 C13 119.7(5) 4 4 ?
C13 C78 C20 120.1(5) 4 . ?
C5 C1 C12 120.6(5) . . ?
C5 C1 C1E 120.1(5) . . ?
C1E C1 C12 119.1(5) . . ?
O4 C2 O7 131.4(5) . . ?
O4 C2 C1H 114.1(4) . . ?
O7 C2 C1H 113.4(4) . . ?
C11 C3 C1D 123.8(5) . . ?
C11 C3 C1T 117.0(5) . . ?
C1T C3 C1D 119.1(5) . . ?
C19 C4 C1K 122.6(6) . . ?
C19 C4 C1R 124.4(6) . . ?
C1R C4 C1K 113.0(5) . . ?
C1 C5 C7 120.7(5) . . ?
C1H C6 C78 121.2(5) . 4_545 ?
C5 C7 C16 117.7(5) . . ?
C5 C7 C15 120.0(5) . . ?
C15 C7 C16 122.1(5) . . ?
C28 C8 C1A 121.5(6) . . ?
O5 C9 O10 127.2(6) . 2 ?
O5 C9 C1A 116.2(5) . . ?
O10 C9 C1A 116.5(5) 2 . ?
C19 C10 C21 173.4(7) . . ?
C3 C11 C1T 122.9(5) . 5_656 ?
C3 C11 C34 124.3(6) . . ?
C1T C11 C34 112.7(5) 5_656 . ?
O3 C12 O6 126.3(5) . . ?
O3 C12 C1 118.0(5) . . ?
O6 C12 C1 115.5(5) . . ?
C1I C13 C78 118.9(5) . 4_545 ?
C1I C14 C1H 120.9(5) . . ?
C21 C15 C7 119.5(5) . . ?
C8 C1A C9 120.8(5) . . ?
C8 C1A C1C 117.5(5) . . ?
C1C C1A C9 121.6(5) . . ?
C1Q C1B C22 114.8(6) . . ?
C1Q C1B C42 119.1(7) . . ?
C42 C1B C22 126.1(7) . . ?
C1F C1C C1A 121.0(5) . . ?
C1N C1D C3 178.0(6) . . ?
C1 C1E C21 119.4(5) . . ?
C1C C1F C17 119.7(5) . . ?
C1C C1F C1M 119.3(5) . . ?
C1M C1F C17 120.8(5) . . ?
C18 C1G C1U 120.4(5) . 7_546 ?
C18 C1G C32 127.1(6) . . ?
C1U C1G C32 112.4(6) 7_546 . ?
C6 C1H C2 121.1(5) . . ?
C6 C1H C14 119.9(5) . . ?
C14 C1H C2 118.7(5) . . ?
C13 C1I C1N 121.1(5) . . ?
C14 C1I C13 119.3(5) . . ?
C14 C1I C1N 119.4(5) . . ?
C29 C1J C18 174.2(7) . . ?
C4 C1K C22 122.6(6) . . ?
C1R C1K C4 122.3(6) 7_556 . ?
C1R C1K C22 115.1(6) 7_556 . ?
C1O C1L C34 113.0(6) . . ?
C40 C1L C1O 120.9(7) . . ?
C40 C1L C34 126.1(7) . . ?
C28 C1M C1F 121.9(6) . . ?
C1D C1N C1I 174.6(6) . . ?
C1L C1O C47 112.1(6) . . ?
C1P C1O C1L 121.7(8) . . ?
C1P C1O C47 126.1(8) . . ?
C1O C1P C53 116.9(10) . . ?
C1B C1Q C38 112.0(6) . . ?
C1B C1Q C39 122.1(7) . . ?
C39 C1Q C38 125.9(7) . . ?
C4 C1R C38 121.6(6) . 7_556 ?
C1K C1R C4 124.6(6) 7_556 . ?
C1K C1R C38 113.7(6) 7_556 7_556 ?
C24 C1S C38 130.3(8) . . ?
C24 C1S C45 117.4(8) . . ?
C45 C1S C38 112.2(6) . . ?
C3 C1T C47 127.5(5) . 5_656 ?
C11 C1T C3 120.0(5) 5_656 . ?
C11 C1T C47 112.3(5) 5_656 5_656 ?
C18 C1U C1G 119.8(6) . 7_546 ?
C18 C1U C51 126.1(6) . 7_546 ?
C1G C1U C51 114.1(6) 7_546 7_546 ?
C75 C1V C48 122.6(8) . . ?
C15 C21 C10 120.0(6) . . ?
C15 C21 C1E 120.2(5) . . ?
C1E C21 C10 119.5(5) . . ?
C1K C22 C1B 103.8(5) . . ?
C45 C22 C1B 104.0(6) . . ?
C45 C22 C1K 104.5(6) . . ?
C25 C23 C26 119.4(7) . . ?
C25 C23 C32 116.7(6) . . ?
C26 C23 C32 123.9(8) . . ?
C1S C24 C66 121.9(9) . . ?
C23 C25 C51 108.8(6) . . ?
C49 C25 C23 121.3(8) . . ?
C49 C25 C51 129.7(8) . . ?
C60 C26 C23 113.6(10) . . ?
C71 C27 C30 121.7(9) . . ?
C8 C28 C29 119.6(6) . . ?
C1M C28 C8 118.5(6) . . ?
C1M C28 C29 121.6(6) . . ?
C1J C29 C28 171.0(8) . . ?
C27 C30 C51 127.1(8) . . ?
C36 C30 C27 118.9(7) . . ?
C36 C30 C51 113.9(6) . . ?
C44 C31 C34 128.8(7) . . ?
C44 C31 C48 120.2(7) . . ?
C48 C31 C34 110.8(6) . . ?
C23 C32 C1G 104.5(5) . . ?
C36 C32 C1G 103.0(5) . . ?
C36 C32 C23 108.0(6) . . ?
C11 C34 C1L 104.7(5) . . ?
C31 C34 C11 104.1(5) . . ?
C31 C34 C1L 108.5(5) . . ?
C30 C36 C32 113.8(6) . . ?
C69 C36 C30 119.3(7) . . ?
C69 C36 C32 126.9(8) . . ?
C1R C38 C1Q 104.9(5) 7_556 . ?
C1S C38 C1Q 107.0(6) . . ?
C1S C38 C1R 104.5(5) . 7_556 ?
C50 C39 C1Q 116.4(8) . . ?
C56 C40 C1L 121.1(9) . . ?
C73 C42 C1B 119.5(10) . . ?
C62 C44 C31 120.5(10) . . ?
C1S C45 C22 115.1(6) . . ?
C1S C45 C46 123.3(9) . . ?
C46 C45 C22 121.6(9) . . ?
C64 C46 C45 119.6(12) . . ?
C1O C47 C1T 103.8(5) . 5_656 ?
C48 C47 C1O 109.1(6) . . ?
C48 C47 C1T 107.2(6) . 5_656 ?
C1V C48 C31 116.7(7) . . ?
C1V C48 C47 129.3(7) . . ?
C31 C48 C47 114.0(6) . . ?
C25 C49 C76 125.6(11) . . ?
C39 C50 C73 121.3(8) . . ?
C1U C51 C25 105.3(6) 7_546 . ?
C30 C51 C1U 104.0(6) . 7_546 ?
C30 C51 C25 107.7(6) . . ?
C1P C53 C56 122.0(9) . . ?
C40 C56 C53 117.4(9) . . ?
C26 C60 C76 124.9(9) . . ?
C75 C62 C44 120.0(10) . . ?
C46 C64 C66 121.0(12) . . ?
C64 C66 C24 116.8(9) . . ?
C70 C69 C36 119.4(10) . . ?
C69 C70 C71 123.3(10) . . ?
C27 C71 C70 117.3(9) . . ?
C42 C73 C50 121.4(9) . . ?
C62 C75 C1V 119.5(8) . . ?
C49 C76 C60 115.1(9) . . ?

_olex2_submission_special_instructions 'No special instructions were received'


# SQUEEZE RESULTS
# Note: Data are Listed for all Voids in the P1 Unit Cell
# i.e. Centre of Gravity, Solvent Accessible Volume,
# Recovered number of Electrons in the Void and
# Details about the Squeezed Material
loop_
_platon_squeeze_void_nr
_platon_squeeze_void_average_x
_platon_squeeze_void_average_y
_platon_squeeze_void_average_z
_platon_squeeze_void_volume
_platon_squeeze_void_count_electrons
_platon_squeeze_void_content
1 -0.007 0.001 0.000 11680 3303 ' '
_platon_squeeze_void_probe_radius 1.20
_platon_squeeze_details          ?
