####################################################################### 
# 
# This file contains crystal structure data downloaded from the 
# Cambridge Structural Database (CSD) hosted by the Cambridge 
# Crystallographic Data Centre (CCDC).
# 
# Full information about CCDC data access policies and citation 
# guidelines are available at http://www.ccdc.cam.ac.uk/access/V1 
# 
# Audit and citation data items may have been added by the CCDC. 
# Please retain this information to preserve the provenance of 
# this file and to allow appropriate attribution of the data. 
# 
#######################################################################

data_Pb(H-BTMB)
_audit_block_doi                 10.5517/ccdc.csd.cc1pgp0v
_database_code_depnum_ccdc_archive 'CCDC 1563237'
loop_
_citation_id
_citation_doi
_citation_year
1 10.1021/acs.inorgchem.7b01551 2017
_audit_update_record             
;
2017-07-22 deposited with the CCDC.	2021-12-15 downloaded from the CCDC.
;
_audit_creation_method           SHELXL-97
_chemical_name_systematic        PbC27H16O6
_chemical_name_common            Pb(H-BTMB)
_chemical_melting_point          ?
_chemical_formula_moiety         ?
_chemical_formula_sum            'C27 H16 N0 O6 Pb'
_chemical_formula_weight         643.59

loop_
_atom_type_symbol
_atom_type_description
_atom_type_scat_dispersion_real
_atom_type_scat_dispersion_imag
_atom_type_scat_source
C C 0.0033 0.0016 'International Tables Vol C Tables 4.2.6.8 and 6.1.1.4'
H H 0.0000 0.0000 'International Tables Vol C Tables 4.2.6.8 and 6.1.1.4'
N N 0.0061 0.0033 'International Tables Vol C Tables 4.2.6.8 and 6.1.1.4'
O O 0.0106 0.0060 'International Tables Vol C Tables 4.2.6.8 and 6.1.1.4'
Pb Pb -3.3944 10.1111 'International Tables Vol C Tables 4.2.6.8 and 6.1.1.4'

_symmetry_cell_setting           Orthorhombic
_symmetry_space_group_name_H-M   Pccn

loop_
_symmetry_equiv_pos_as_xyz
'x, y, z'
'-x+1/2, -y+1/2, z'
'x+1/2, -y, -z+1/2'
'-x, y+1/2, -z+1/2'
'-x, -y, -z'
'x-1/2, y-1/2, -z'
'-x-1/2, y, z-1/2'
'x, -y-1/2, z-1/2'

_cell_length_a                   20.989(6)
_cell_length_b                   29.784(9)
_cell_length_c                   7.425(2)
_cell_angle_alpha                90.00
_cell_angle_beta                 90.00
_cell_angle_gamma                90.00
_cell_volume                     4642(2)
_cell_formula_units_Z            8
_cell_measurement_temperature    293(2)
_cell_measurement_reflns_used    9124
_cell_measurement_theta_min      1.9406
_cell_measurement_theta_max      31.3737

_exptl_crystal_description       block
_exptl_crystal_colour            Colorless
_exptl_crystal_size_max          0.200
_exptl_crystal_size_mid          0.200
_exptl_crystal_size_min          0.200
_exptl_crystal_density_meas      ?
_exptl_crystal_density_diffrn    1.842
_exptl_crystal_density_method    'not measured'
_exptl_crystal_F_000             2464
_exptl_absorpt_coefficient_mu    7.310
_exptl_absorpt_correction_type   Numerical
_exptl_absorpt_correction_T_min  0.6489
_exptl_absorpt_correction_T_max  1.0000
_exptl_absorpt_process_details   ?

_exptl_special_details           
; 
 ? 
;

_diffrn_ambient_temperature      293(2)
_diffrn_radiation_wavelength     0.71073
_diffrn_radiation_type           MoK\a
_diffrn_radiation_source         'fine-focus sealed tube'
_diffrn_radiation_monochromator  graphite
_diffrn_measurement_device_type  CCD
_diffrn_measurement_method       dtprofit.ref
_diffrn_detector_area_resol_mean ?
_diffrn_standards_number         ?
_diffrn_standards_interval_count ?
_diffrn_standards_interval_time  ?
_diffrn_standards_decay_%        0
_diffrn_reflns_number            7192
_diffrn_reflns_av_R_equivalents  0.0000
_diffrn_reflns_av_sigmaI/netI    0.2581
_diffrn_reflns_limit_h_min       0
_diffrn_reflns_limit_h_max       30
_diffrn_reflns_limit_k_min       0
_diffrn_reflns_limit_k_max       42
_diffrn_reflns_limit_l_min       0
_diffrn_reflns_limit_l_max       10
_diffrn_reflns_theta_min         1.37
_diffrn_reflns_theta_max         31.55
_reflns_number_total             7192
_reflns_number_gt                2811
_reflns_threshold_expression     >2sigma(I)

_computing_data_collection       'CrystalClear (Rigaku/MSC Inc., 2006)'
_computing_cell_refinement       'CrystalClear (Rigaku/MSC Inc., 2006)'
_computing_data_reduction        'CrystalClear (Rigaku/MSC Inc., 2006)'
_computing_structure_solution    'SHELXS-97 (Sheldrick, 1997)'
_computing_structure_refinement  'SHELXL-97 (Sheldrick, 1997)'
_computing_molecular_graphics    ORTEP
_computing_publication_material  wingx

_refine_special_details          
;Refinement of F^2^ against ALL reflections.  The weighted R-factor wR and 
 goodness of fit S are based on F^2^, conventional R-factors R are based 
 on F, with F set to zero for negative F^2^. The threshold expression of 
 F^2^ > 2sigma(F^2^) is used only for calculating R-factors(gt) etc. and is 
 not relevant to the choice of reflections for refinement.  R-factors based 
 on F^2^ are statistically about twice as large as those based on F, and R- 
 factors based on ALL data will be even larger.,SQUEEZE
;

_refine_ls_structure_factor_coef Fsqd
_refine_ls_matrix_type           full
_refine_ls_weighting_scheme      calc
_refine_ls_weighting_details     
'calc w=1/[\s^2^(Fo^2^)+(0.0611P)^2^+0.0000P] where P=(Fo^2^+2Fc^2^)/3'
_atom_sites_solution_primary     direct
_atom_sites_solution_secondary   difmap
_atom_sites_solution_hydrogens   geom
_refine_ls_hydrogen_treatment    constr
_refine_ls_extinction_method     SHELXL
_refine_ls_extinction_coef       0.0067(3)
_refine_ls_extinction_expression Fc^*^=kFc[1+0.001xFc^2^\l^3^/sin(2\q)]^-1/4^
_refine_ls_number_reflns         7192
_refine_ls_number_parameters     309
_refine_ls_number_restraints     0
_refine_ls_R_factor_all          0.1560
_refine_ls_R_factor_gt           0.0813
_refine_ls_wR_factor_ref         0.2329
_refine_ls_wR_factor_gt          0.1798
_refine_ls_goodness_of_fit_ref   0.922
_refine_ls_restrained_S_all      0.922
_refine_ls_shift/su_max          0.000
_refine_ls_shift/su_mean         0.000

loop_
_atom_site_label
_atom_site_type_symbol
_atom_site_fract_x
_atom_site_fract_y
_atom_site_fract_z
_atom_site_U_iso_or_equiv
_atom_site_adp_type
_atom_site_occupancy
_atom_site_symmetry_multiplicity
_atom_site_calc_flag
_atom_site_refinement_flags
_atom_site_disorder_assembly
_atom_site_disorder_group
C1 C 0.3084(4) -0.1120(3) 0.9650(17) 0.054(3) Uani 1 1 d . . .
C2 C 0.2581(4) -0.1309(3) 1.0561(15) 0.052(3) Uani 1 1 d . . .
H2 H 0.2225 -0.1132 1.0786 0.062 Uiso 1 1 calc R . .
C3 C 0.2573(6) -0.1750(4) 1.1164(13) 0.054(3) Uani 1 1 d . . .
H3 H 0.2213 -0.1874 1.1698 0.064 Uiso 1 1 calc R . .
C4 C 0.3122(5) -0.1995(3) 1.0936(14) 0.046(2) Uani 1 1 d . . .
H4 H 0.3137 -0.2285 1.1401 0.055 Uiso 1 1 calc R . .
C5 C 0.3679(5) -0.1824(3) 1.0004(15) 0.051(2) Uani 1 1 d . . .
C6 C 0.3629(4) -0.1391(3) 0.9391(13) 0.045(2) Uani 1 1 d . . .
H6 H 0.3973 -0.1269 0.8770 0.054 Uiso 1 1 calc R . .
C7 C 0.4237(4) -0.2107(3) 0.9766(13) 0.045(2) Uani 1 1 d . . .
C8 C 0.4217(4) -0.2558(4) 0.9719(17) 0.059(3) Uani 1 1 d . . .
H8 H 0.3826 -0.2700 0.9835 0.071 Uiso 1 1 calc R . .
C9 C 0.4776(4) -0.2825(4) 0.9496(15) 0.054(3) Uani 1 1 d . . .
C10 C 0.5351(5) -0.2617(3) 0.9375(15) 0.055(3) Uani 1 1 d . . .
H10 H 0.5718 -0.2791 0.9335 0.066 Uiso 1 1 calc R . .
C11 C 0.4845(5) -0.1896(3) 0.9554(14) 0.052(2) Uani 1 1 d . . .
H11 H 0.4868 -0.1584 0.9579 0.062 Uiso 1 1 calc R . .
C12 C 0.5411(4) -0.2145(3) 0.9308(13) 0.044(2) Uani 1 1 d . . .
C13 C 0.4735(4) -0.3321(3) 0.9540(12) 0.0368(18) Uani 1 1 d . . .
C14 C 0.4166(5) -0.3562(3) 0.9138(17) 0.058(3) Uani 1 1 d . . .
H14 H 0.3796 -0.3405 0.8854 0.069 Uiso 1 1 calc R . .
C15 C 0.4156(7) -0.4014(4) 0.9162(19) 0.072(3) Uani 1 1 d . . .
H15 H 0.3772 -0.4160 0.8943 0.087 Uiso 1 1 calc R . .
C16 C 0.5280(5) -0.3595(4) 0.9928(13) 0.060(3) Uani 1 1 d . . .
H16 H 0.5664 -0.3459 1.0241 0.072 Uiso 1 1 calc R . .
C17 C 0.4685(6) -0.4269(4) 0.949(2) 0.086(5) Uani 1 1 d . . .
H17 H 0.4656 -0.4580 0.9477 0.103 Uiso 1 1 calc R . .
C18 C 0.3051(5) -0.0670(4) 0.8857(18) 0.055(3) Uani 1 1 d . . .
C19 C 0.6031(4) -0.1923(4) 0.9234(12) 0.047(2) Uani 1 1 d . . .
C20 C 0.6149(5) -0.1509(4) 1.0103(16) 0.058(3) Uani 1 1 d . . .
H20 H 0.5831 -0.1377 1.0795 0.069 Uiso 1 1 calc R . .
C21 C 0.6524(5) -0.2111(4) 0.8171(12) 0.052(3) Uani 1 1 d . . .
H21 H 0.6447 -0.2372 0.7522 0.062 Uiso 1 1 calc R . .
C22 C 0.6739(5) -0.1297(4) 0.9934(12) 0.054(3) Uani 1 1 d . . .
C23 C 0.7226(6) -0.1501(4) 0.8953(17) 0.069(3) Uani 1 1 d . . .
H23 H 0.7624 -0.1365 0.8876 0.083 Uiso 1 1 calc R . .
C24 C 0.7117(5) -0.1912(4) 0.8084(17) 0.061(3) Uani 1 1 d . . .
H24 H 0.7444 -0.2050 0.7447 0.074 Uiso 1 1 calc R . .
C25 C 0.6839(8) -0.0859(4) 1.082(2) 0.072(4) Uani 1 1 d . . .
C26 C 0.5242(5) -0.4072(4) 0.9840(14) 0.063(3) Uani 1 1 d . . .
C27 C 0.5844(8) -0.4319(6) 1.027(3) 0.116(8) Uani 1 1 d . . .
O1 O 0.3536(4) -0.0499(3) 0.8185(12) 0.068(2) Uani 1 1 d . . .
O2 O 0.2527(3) -0.0454(2) 0.8942(11) 0.057(2) Uani 1 1 d . . .
O3 O 0.6362(5) -0.0660(3) 1.1602(13) 0.088(3) Uani 1 1 d . . .
O4 O 0.7391(4) -0.0691(3) 1.0938(12) 0.069(2) Uani 1 1 d . . .
O5 O 0.5871(7) -0.4709(5) 0.988(4) 0.290(18) Uani 1 1 d . . .
O6 O 0.6333(6) -0.4085(9) 1.072(2) 0.213(12) Uani 1 1 d . . .
H6A H 0.6327 -0.3845 1.0175 0.320 Uiso 1 1 calc R . .
Pb1 Pb 0.30147(2) 0.012251(19) 0.65668(8) 0.0654(3) Uani 1 1 d . . .

loop_
_atom_site_aniso_label
_atom_site_aniso_U_11
_atom_site_aniso_U_22
_atom_site_aniso_U_33
_atom_site_aniso_U_23
_atom_site_aniso_U_13
_atom_site_aniso_U_12
C1 0.044(5) 0.024(5) 0.093(9) -0.013(5) 0.036(5) -0.003(3)
C2 0.037(4) 0.028(5) 0.090(7) -0.021(5) 0.021(5) -0.004(4)
C3 0.079(7) 0.034(5) 0.049(5) -0.008(5) 0.023(5) -0.005(5)
C4 0.055(5) 0.019(4) 0.065(6) -0.031(4) 0.024(5) -0.016(4)
C5 0.048(5) 0.028(4) 0.076(6) -0.017(4) 0.028(5) -0.008(4)
C6 0.043(5) 0.029(4) 0.063(6) -0.011(4) 0.005(4) 0.003(4)
C7 0.046(5) 0.012(3) 0.078(6) -0.023(4) 0.021(5) 0.005(3)
C8 0.028(4) 0.052(7) 0.096(8) -0.004(6) 0.013(5) -0.007(4)
C9 0.027(4) 0.050(6) 0.085(7) -0.028(5) -0.003(4) -0.016(4)
C10 0.036(4) 0.040(5) 0.088(7) -0.026(5) -0.006(5) 0.001(4)
C11 0.052(5) 0.026(4) 0.078(6) -0.008(5) 0.006(5) 0.009(4)
C12 0.041(5) 0.039(5) 0.052(5) -0.008(4) 0.008(4) 0.005(4)
C13 0.042(4) 0.022(4) 0.046(5) -0.014(3) 0.001(4) 0.004(3)
C14 0.044(5) 0.021(5) 0.108(8) -0.010(5) -0.013(5) 0.010(4)
C15 0.083(8) 0.050(7) 0.084(8) 0.009(7) 0.033(7) 0.010(6)
C16 0.042(5) 0.088(9) 0.051(6) -0.014(5) -0.001(4) 0.022(5)
C17 0.062(7) 0.048(7) 0.147(13) 0.016(8) 0.051(8) 0.018(6)
C18 0.059(7) 0.032(5) 0.073(7) -0.015(5) 0.010(5) -0.015(4)
C19 0.036(4) 0.058(6) 0.047(5) -0.009(5) 0.003(4) 0.016(4)
C20 0.059(6) 0.042(6) 0.073(7) -0.009(5) 0.020(5) -0.006(5)
C21 0.055(6) 0.063(7) 0.038(4) -0.014(5) 0.008(4) -0.005(5)
C22 0.060(6) 0.072(8) 0.030(4) -0.011(4) 0.007(4) -0.012(6)
C23 0.054(7) 0.064(8) 0.088(9) 0.033(7) -0.003(6) 0.002(6)
C24 0.044(5) 0.047(7) 0.093(9) 0.005(6) -0.005(5) -0.029(5)
C25 0.089(9) 0.044(7) 0.084(9) 0.023(7) -0.027(8) -0.047(7)
C26 0.065(7) 0.056(7) 0.069(6) 0.030(5) 0.043(5) 0.035(6)
C27 0.085(10) 0.109(13) 0.155(15) 0.055(11) 0.076(11) 0.080(10)
O1 0.058(5) 0.033(4) 0.112(6) 0.009(4) 0.014(4) -0.003(4)
O2 0.049(4) 0.034(4) 0.090(6) 0.005(4) 0.017(4) 0.004(3)
O3 0.072(6) 0.069(6) 0.124(8) -0.036(5) -0.024(6) -0.014(5)
O4 0.062(5) 0.062(5) 0.084(6) -0.003(5) -0.002(4) -0.037(4)
O5 0.095(10) 0.102(10) 0.67(5) 0.190(19) 0.209(19) 0.084(9)
O6 0.074(8) 0.44(4) 0.123(9) -0.001(15) -0.010(8) 0.136(15)
Pb1 0.0636(4) 0.0576(4) 0.0750(5) -0.0186(2) -0.0141(2) 0.0163(2)

_geom_special_details            
; 
 All esds (except the esd in the dihedral angle between two l.s. planes) 
 are estimated using the full covariance matrix.  The cell esds are taken 
 into account individually in the estimation of esds in distances, angles 
 and torsion angles; correlations between esds in cell parameters are only 
 used when they are defined by crystal symmetry.  An approximate (isotropic) 
 treatment of cell esds is used for estimating esds involving l.s. planes. 
;

loop_
_geom_bond_atom_site_label_1
_geom_bond_atom_site_label_2
_geom_bond_distance
_geom_bond_site_symmetry_2
_geom_bond_publ_flag
C1 C2 1.374(13) . ?
C1 C6 1.414(12) . ?
C1 C18 1.467(17) . ?
C2 C3 1.386(15) . ?
C3 C4 1.375(14) . ?
C4 C5 1.451(12) . ?
C5 C6 1.371(14) . ?
C5 C7 1.453(12) . ?
C7 C8 1.344(14) . ?
C7 C11 1.430(13) . ?
C8 C9 1.428(13) . ?
C9 C10 1.360(12) . ?
C9 C13 1.480(14) . ?
C10 C12 1.410(14) . ?
C11 C12 1.414(12) . ?
C12 C19 1.461(13) . ?
C13 C14 1.425(13) . ?
C13 C16 1.435(13) . ?
C14 C15 1.346(16) . ?
C15 C17 1.366(17) . ?
C16 C26 1.424(17) . ?
C17 C26 1.333(19) . ?
C18 O1 1.242(12) . ?
C18 O2 1.276(12) . ?
C19 C20 1.414(16) . ?
C19 C21 1.416(12) . ?
C20 C22 1.397(14) . ?
C21 C24 1.380(13) . ?
C22 C23 1.395(17) . ?
C22 C25 1.476(18) . ?
C23 C24 1.401(18) . ?
C25 O4 1.265(13) . ?
C25 O3 1.300(18) . ?
C26 C27 1.497(16) . ?
C27 O5 1.20(3) . ?
C27 O6 1.29(3) . ?
O1 Pb1 2.464(8) . ?
O2 Pb1 2.666(7) . ?
O3 Pb1 2.475(8) 5_657 ?
O4 Pb1 2.650(9) 5_657 ?
O5 Pb1 2.622(10) 4_646 ?
Pb1 O3 2.475(8) 5_657 ?
Pb1 O5 2.622(10) 4_656 ?
Pb1 O4 2.650(9) 5_657 ?

loop_
_geom_angle_atom_site_label_1
_geom_angle_atom_site_label_2
_geom_angle_atom_site_label_3
_geom_angle
_geom_angle_site_symmetry_1
_geom_angle_site_symmetry_3
_geom_angle_publ_flag
C2 C1 C6 117.0(9) . . ?
C2 C1 C18 122.4(9) . . ?
C6 C1 C18 120.4(9) . . ?
C1 C2 C3 123.7(9) . . ?
C4 C3 C2 117.0(9) . . ?
C3 C4 C5 123.1(9) . . ?
C6 C5 C4 115.3(9) . . ?
C6 C5 C7 124.5(8) . . ?
C4 C5 C7 120.2(9) . . ?
C5 C6 C1 123.7(9) . . ?
C8 C7 C11 117.6(8) . . ?
C8 C7 C5 123.8(8) . . ?
C11 C7 C5 118.5(8) . . ?
C7 C8 C9 122.4(8) . . ?
C10 C9 C8 118.8(9) . . ?
C10 C9 C13 120.6(8) . . ?
C8 C9 C13 120.4(8) . . ?
C9 C10 C12 122.4(9) . . ?
C12 C11 C7 122.2(8) . . ?
C10 C12 C11 116.4(9) . . ?
C10 C12 C19 122.1(8) . . ?
C11 C12 C19 121.0(8) . . ?
C14 C13 C16 115.1(8) . . ?
C14 C13 C9 123.2(8) . . ?
C16 C13 C9 121.6(9) . . ?
C15 C14 C13 120.9(10) . . ?
C14 C15 C17 123.0(14) . . ?
C26 C16 C13 120.8(10) . . ?
C26 C17 C15 120.2(12) . . ?
O1 C18 O2 121.4(11) . . ?
O1 C18 C1 119.8(10) . . ?
O2 C18 C1 118.7(9) . . ?
C20 C19 C21 118.0(10) . . ?
C20 C19 C12 122.3(8) . . ?
C21 C19 C12 119.6(9) . . ?
C22 C20 C19 120.7(10) . . ?
C24 C21 C19 121.1(10) . . ?
C23 C22 C20 119.9(11) . . ?
C23 C22 C25 121.0(12) . . ?
C20 C22 C25 119.1(11) . . ?
C22 C23 C24 120.1(11) . . ?
C21 C24 C23 120.1(12) . . ?
O4 C25 O3 119.7(12) . . ?
O4 C25 C22 120.7(15) . . ?
O3 C25 C22 119.5(10) . . ?
C17 C26 C16 119.8(9) . . ?
C17 C26 C27 124.4(13) . . ?
C16 C26 C27 115.7(13) . . ?
O5 C27 O6 123.5(15) . . ?
O5 C27 C26 118(2) . . ?
O6 C27 C26 117.5(17) . . ?
C18 O1 Pb1 98.0(7) . . ?
C18 O2 Pb1 87.7(6) . . ?
C25 O3 Pb1 97.6(7) . 5_657 ?
C25 O4 Pb1 90.4(9) . 5_657 ?
C27 O5 Pb1 109.0(10) . 4_646 ?
O1 Pb1 O3 89.1(3) . 5_657 ?
O1 Pb1 O5 87.0(7) . 4_656 ?
O3 Pb1 O5 68.3(5) 5_657 4_656 ?
O1 Pb1 O4 106.4(3) . 5_657 ?
O3 Pb1 O4 51.1(3) 5_657 5_657 ?
O5 Pb1 O4 116.8(4) 4_656 5_657 ?
O1 Pb1 O2 50.5(3) . . ?
O3 Pb1 O2 104.9(3) 5_657 . ?
O5 Pb1 O2 137.5(7) 4_656 . ?
O4 Pb1 O2 79.9(2) 5_657 . ?

_diffrn_measured_fraction_theta_max 0.958
_diffrn_reflns_theta_full        31.55
_diffrn_measured_fraction_theta_full 0.958
_refine_diff_density_max         1.971
_refine_diff_density_min         -1.455
_refine_diff_density_rms         0.234
