####################################################################### 
# 
# This file contains crystal structure data downloaded from the 
# Cambridge Structural Database (CSD) hosted by the Cambridge 
# Crystallographic Data Centre (CCDC).
# 
# Full information about CCDC data access policies and citation 
# guidelines are available at http://www.ccdc.cam.ac.uk/access/V1 
# 
# Audit and citation data items may have been added by the CCDC. 
# Please retain this information to preserve the provenance of 
# this file and to allow appropriate attribution of the data. 
# 
#######################################################################

data_IFMC-29
_audit_block_doi                 10.5517/ccdc.csd.cc1yy142
_database_code_depnum_ccdc_archive 'CCDC 1815364'
loop_
_citation_id
_citation_doi
_citation_year
1 10.1016/j.inoche.2018.04.026 2018
_audit_update_record             
;
2018-01-26 deposited with the CCDC.	2021-12-14 downloaded from the CCDC.
;

_audit_creation_method           SHELXL-97
_chemical_name_systematic        
;
 ?
;
_chemical_name_common            Zn4O(CH3PhTDC)3
_chemical_melting_point          none
_chemical_formula_moiety         Zn4O(C15H8O4S2)3
_chemical_formula_sum            'C45 H24 O13 S6 Zn4'
_chemical_formula_weight         1226.48

loop_
_atom_type_symbol
_atom_type_description
_atom_type_scat_dispersion_real
_atom_type_scat_dispersion_imag
_atom_type_scat_source
C C 0.0033 0.0016 'International Tables Vol C Tables 4.2.6.8 and 6.1.1.4'
H H 0.0000 0.0000 'International Tables Vol C Tables 4.2.6.8 and 6.1.1.4'
O O 0.0106 0.0060 'International Tables Vol C Tables 4.2.6.8 and 6.1.1.4'
S S 0.1246 0.1234 'International Tables Vol C Tables 4.2.6.8 and 6.1.1.4'
Zn Zn 0.2839 1.4301 'International Tables Vol C Tables 4.2.6.8 and 6.1.1.4'

_symmetry_cell_setting           Cubic
_symmetry_space_group_name_H-M   Fm-3m

loop_
_symmetry_equiv_pos_as_xyz
'x, y, z'
'-x, -y, z'
'x, -y, -z'
'-x, y, -z'
'z, x, y'
'y, z, x'
'-z, -x, y'
'-y, z, -x'
'z, -x, -y'
'-y, -z, x'
'-z, x, -y'
'y, -z, -x'
'-y, -x, -z'
'y, x, -z'
'y, -x, z'
'-y, x, z'
'-x, -z, -y'
'-z, -y, -x'
'x, z, -y'
'-z, y, x'
'x, -z, y'
'z, y, -x'
'-x, z, y'
'z, -y, x'
'x, y+1/2, z+1/2'
'-x, -y+1/2, z+1/2'
'x, -y+1/2, -z+1/2'
'-x, y+1/2, -z+1/2'
'z, x+1/2, y+1/2'
'y, z+1/2, x+1/2'
'-z, -x+1/2, y+1/2'
'-y, z+1/2, -x+1/2'
'z, -x+1/2, -y+1/2'
'-y, -z+1/2, x+1/2'
'-z, x+1/2, -y+1/2'
'y, -z+1/2, -x+1/2'
'-y, -x+1/2, -z+1/2'
'y, x+1/2, -z+1/2'
'y, -x+1/2, z+1/2'
'-y, x+1/2, z+1/2'
'-x, -z+1/2, -y+1/2'
'-z, -y+1/2, -x+1/2'
'x, z+1/2, -y+1/2'
'-z, y+1/2, x+1/2'
'x, -z+1/2, y+1/2'
'z, y+1/2, -x+1/2'
'-x, z+1/2, y+1/2'
'z, -y+1/2, x+1/2'
'x+1/2, y, z+1/2'
'-x+1/2, -y, z+1/2'
'x+1/2, -y, -z+1/2'
'-x+1/2, y, -z+1/2'
'z+1/2, x, y+1/2'
'y+1/2, z, x+1/2'
'-z+1/2, -x, y+1/2'
'-y+1/2, z, -x+1/2'
'z+1/2, -x, -y+1/2'
'-y+1/2, -z, x+1/2'
'-z+1/2, x, -y+1/2'
'y+1/2, -z, -x+1/2'
'-y+1/2, -x, -z+1/2'
'y+1/2, x, -z+1/2'
'y+1/2, -x, z+1/2'
'-y+1/2, x, z+1/2'
'-x+1/2, -z, -y+1/2'
'-z+1/2, -y, -x+1/2'
'x+1/2, z, -y+1/2'
'-z+1/2, y, x+1/2'
'x+1/2, -z, y+1/2'
'z+1/2, y, -x+1/2'
'-x+1/2, z, y+1/2'
'z+1/2, -y, x+1/2'
'x+1/2, y+1/2, z'
'-x+1/2, -y+1/2, z'
'x+1/2, -y+1/2, -z'
'-x+1/2, y+1/2, -z'
'z+1/2, x+1/2, y'
'y+1/2, z+1/2, x'
'-z+1/2, -x+1/2, y'
'-y+1/2, z+1/2, -x'
'z+1/2, -x+1/2, -y'
'-y+1/2, -z+1/2, x'
'-z+1/2, x+1/2, -y'
'y+1/2, -z+1/2, -x'
'-y+1/2, -x+1/2, -z'
'y+1/2, x+1/2, -z'
'y+1/2, -x+1/2, z'
'-y+1/2, x+1/2, z'
'-x+1/2, -z+1/2, -y'
'-z+1/2, -y+1/2, -x'
'x+1/2, z+1/2, -y'
'-z+1/2, y+1/2, x'
'x+1/2, -z+1/2, y'
'z+1/2, y+1/2, -x'
'-x+1/2, z+1/2, y'
'z+1/2, -y+1/2, x'
'-x, -y, -z'
'x, y, -z'
'-x, y, z'
'x, -y, z'
'-z, -x, -y'
'-y, -z, -x'
'z, x, -y'
'y, -z, x'
'-z, x, y'
'y, z, -x'
'z, -x, y'
'-y, z, x'
'y, x, z'
'-y, -x, z'
'-y, x, -z'
'y, -x, -z'
'x, z, y'
'z, y, x'
'-x, -z, y'
'z, -y, -x'
'-x, z, -y'
'-z, -y, x'
'x, -z, -y'
'-z, y, -x'
'-x, -y+1/2, -z+1/2'
'x, y+1/2, -z+1/2'
'-x, y+1/2, z+1/2'
'x, -y+1/2, z+1/2'
'-z, -x+1/2, -y+1/2'
'-y, -z+1/2, -x+1/2'
'z, x+1/2, -y+1/2'
'y, -z+1/2, x+1/2'
'-z, x+1/2, y+1/2'
'y, z+1/2, -x+1/2'
'z, -x+1/2, y+1/2'
'-y, z+1/2, x+1/2'
'y, x+1/2, z+1/2'
'-y, -x+1/2, z+1/2'
'-y, x+1/2, -z+1/2'
'y, -x+1/2, -z+1/2'
'x, z+1/2, y+1/2'
'z, y+1/2, x+1/2'
'-x, -z+1/2, y+1/2'
'z, -y+1/2, -x+1/2'
'-x, z+1/2, -y+1/2'
'-z, -y+1/2, x+1/2'
'x, -z+1/2, -y+1/2'
'-z, y+1/2, -x+1/2'
'-x+1/2, -y, -z+1/2'
'x+1/2, y, -z+1/2'
'-x+1/2, y, z+1/2'
'x+1/2, -y, z+1/2'
'-z+1/2, -x, -y+1/2'
'-y+1/2, -z, -x+1/2'
'z+1/2, x, -y+1/2'
'y+1/2, -z, x+1/2'
'-z+1/2, x, y+1/2'
'y+1/2, z, -x+1/2'
'z+1/2, -x, y+1/2'
'-y+1/2, z, x+1/2'
'y+1/2, x, z+1/2'
'-y+1/2, -x, z+1/2'
'-y+1/2, x, -z+1/2'
'y+1/2, -x, -z+1/2'
'x+1/2, z, y+1/2'
'z+1/2, y, x+1/2'
'-x+1/2, -z, y+1/2'
'z+1/2, -y, -x+1/2'
'-x+1/2, z, -y+1/2'
'-z+1/2, -y, x+1/2'
'x+1/2, -z, -y+1/2'
'-z+1/2, y, -x+1/2'
'-x+1/2, -y+1/2, -z'
'x+1/2, y+1/2, -z'
'-x+1/2, y+1/2, z'
'x+1/2, -y+1/2, z'
'-z+1/2, -x+1/2, -y'
'-y+1/2, -z+1/2, -x'
'z+1/2, x+1/2, -y'
'y+1/2, -z+1/2, x'
'-z+1/2, x+1/2, y'
'y+1/2, z+1/2, -x'
'z+1/2, -x+1/2, y'
'-y+1/2, z+1/2, x'
'y+1/2, x+1/2, z'
'-y+1/2, -x+1/2, z'
'-y+1/2, x+1/2, -z'
'y+1/2, -x+1/2, -z'
'x+1/2, z+1/2, y'
'z+1/2, y+1/2, x'
'-x+1/2, -z+1/2, y'
'z+1/2, -y+1/2, -x'
'-x+1/2, z+1/2, -y'
'-z+1/2, -y+1/2, x'
'x+1/2, -z+1/2, -y'
'-z+1/2, y+1/2, -x'

_cell_length_a                   29.219(6)
_cell_length_b                   29.219(6)
_cell_length_c                   29.219(6)
_cell_angle_alpha                90.000
_cell_angle_beta                 90.000
_cell_angle_gamma                90.000
_cell_volume                     24946(9)
_cell_formula_units_Z            8
_cell_measurement_temperature    293(2)
_cell_measurement_reflns_used    120
_cell_measurement_theta_min      2.83
_cell_measurement_theta_max      23.55

_exptl_crystal_description       cubic
_exptl_crystal_colour            colorless
_exptl_crystal_size_max          0.58
_exptl_crystal_size_mid          0.54
_exptl_crystal_size_min          0.50
_exptl_crystal_density_meas      none
_exptl_crystal_density_diffrn    0.653
_exptl_crystal_density_method    'not measured'
_exptl_crystal_F_000             4912
_exptl_absorpt_coefficient_mu    0.885
_exptl_absorpt_correction_type   multi-scan
_exptl_absorpt_correction_T_min  0.60
_exptl_absorpt_correction_T_max  0.65
_exptl_absorpt_process_details   '(SADABS; Bruker, 2000)'

_exptl_special_details           
;
 ?
;

_diffrn_ambient_temperature      293(2)
_diffrn_radiation_wavelength     0.71069
_diffrn_radiation_type           MoK\a
_diffrn_radiation_source         'fine-focus sealed tube'
_diffrn_radiation_monochromator  graphite
_diffrn_measurement_device_type  'CCD area detector'
_diffrn_measurement_method       'omega scans'
_diffrn_detector_area_resol_mean ?
_diffrn_standards_number         ?
_diffrn_standards_interval_count ?
_diffrn_standards_interval_time  ?
_diffrn_standards_decay_%        ?
_diffrn_reflns_number            22182
_diffrn_reflns_av_R_equivalents  0.1316
_diffrn_reflns_av_sigmaI/netI    0.0414
_diffrn_reflns_limit_h_min       -28
_diffrn_reflns_limit_h_max       29
_diffrn_reflns_limit_k_min       -16
_diffrn_reflns_limit_k_max       29
_diffrn_reflns_limit_l_min       -29
_diffrn_reflns_limit_l_max       29
_diffrn_reflns_theta_min         1.97
_diffrn_reflns_theta_max         21.20
_reflns_number_total             751
_reflns_number_gt                611
_reflns_threshold_expression     >2sigma(I)

_computing_data_collection       'Bruker SMART'
_computing_cell_refinement       'Bruker SMART'
_computing_data_reduction        'Bruker SMART'
_computing_structure_solution    'Bruker SHELXTL'
_computing_structure_refinement  'SHELXL-97 (Sheldrick, 1997)'
_computing_molecular_graphics    'Bruker SHELXTL'
_computing_publication_material  'Bruker SHELXTL'

_refine_special_details          
;
 Refinement of F^2^ against ALL reflections.  The weighted R-factor wR and
 goodness of fit S are based on F^2^, conventional R-factors R are based
 on F, with F set to zero for negative F^2^. The threshold expression of
 F^2^ > 2sigma(F^2^) is used only for calculating R-factors(gt) etc. and is
 not relevant to the choice of reflections for refinement.  R-factors based
 on F^2^ are statistically about twice as large as those based on F, and R-
 factors based on ALL data will be even larger.
;

_refine_ls_structure_factor_coef Fsqd
_refine_ls_matrix_type           full
_refine_ls_weighting_scheme      calc
_refine_ls_weighting_details     
'calc w=1/[\s^2^(Fo^2^)+(0.1021P)^2^+32.4504P] where P=(Fo^2^+2Fc^2^)/3'
_atom_sites_solution_primary     direct
_atom_sites_solution_secondary   difmap
_atom_sites_solution_hydrogens   none
_refine_ls_hydrogen_treatment    none
_refine_ls_extinction_method     none
_refine_ls_extinction_coef       ?
_refine_ls_number_reflns         751
_refine_ls_number_parameters     29
_refine_ls_number_restraints     0
_refine_ls_R_factor_all          0.0660
_refine_ls_R_factor_gt           0.0518
_refine_ls_wR_factor_ref         0.1674
_refine_ls_wR_factor_gt          0.1579
_refine_ls_goodness_of_fit_ref   1.122
_refine_ls_restrained_S_all      1.122
_refine_ls_shift/su_max          0.000
_refine_ls_shift/su_mean         0.000

loop_
_atom_site_label
_atom_site_type_symbol
_atom_site_fract_x
_atom_site_fract_y
_atom_site_fract_z
_atom_site_U_iso_or_equiv
_atom_site_adp_type
_atom_site_occupancy
_atom_site_symmetry_multiplicity
_atom_site_calc_flag
_atom_site_refinement_flags
_atom_site_disorder_assembly
_atom_site_disorder_group
Zn1 Zn 0.211533(19) 0.211533(19) 0.211533(19) 0.0566(6) Uani 1 6 d S . .
O1 O 0.2500 0.2500 0.2500 0.039(2) Uani 1 24 d S . .
O2 O 0.22269(13) 0.14736(14) 0.22269(13) 0.1196(19) Uani 1 2 d S . .
C1 C 0.2500 0.1279(3) 0.2500 0.094(3) Uani 1 4 d S . .
C2 C 0.2500 0.0766(3) 0.2500 0.102(3) Uani 1 4 d S . .
C3 C 0.21147(14) 0.05242(12) 0.21147(14) 0.224(3) Uani 0.50 2 d SP . .
C4 C 0.2350(3) 0.0000 0.2350(3) 0.156(6) Uani 1 4 d S . .
S1 S 0.21147(14) 0.05242(12) 0.21147(14) 0.224(3) Uani 0.50 2 d SP . .

loop_
_atom_site_aniso_label
_atom_site_aniso_U_11
_atom_site_aniso_U_22
_atom_site_aniso_U_33
_atom_site_aniso_U_23
_atom_site_aniso_U_13
_atom_site_aniso_U_12
Zn1 0.0566(6) 0.0566(6) 0.0566(6) -0.0028(3) -0.0028(3) -0.0028(3)
O1 0.039(2) 0.039(2) 0.039(2) 0.000 0.000 0.000
O2 0.159(3) 0.041(3) 0.159(3) 0.002(2) -0.039(3) 0.002(2)
C1 0.122(5) 0.039(5) 0.122(5) 0.000 -0.025(7) 0.000
C2 0.127(5) 0.052(5) 0.127(5) 0.000 -0.021(7) 0.000
C3 0.317(5) 0.040(2) 0.317(5) -0.0253(17) -0.052(5) -0.0253(17)
C4 0.196(10) 0.076(6) 0.196(10) 0.000 0.001(12) 0.000
S1 0.317(5) 0.040(2) 0.317(5) -0.0253(17) -0.052(5) -0.0253(17)

_geom_special_details            
;
 All esds (except the esd in the dihedral angle between two l.s. planes)
 are estimated using the full covariance matrix.  The cell esds are taken
 into account individually in the estimation of esds in distances, angles
 and torsion angles; correlations between esds in cell parameters are only
 used when they are defined by crystal symmetry.  An approximate (isotropic)
 treatment of cell esds is used for estimating esds involving l.s. planes.
;

loop_
_geom_bond_atom_site_label_1
_geom_bond_atom_site_label_2
_geom_bond_distance
_geom_bond_site_symmetry_2
_geom_bond_publ_flag
Zn1 O2 1.931(4) . ?
Zn1 O2 1.931(4) 6 ?
Zn1 O2 1.931(4) 5 ?
Zn1 O1 1.9468(11) . ?
O1 Zn1 1.9468(11) 52 ?
O1 Zn1 1.9468(11) 74 ?
O1 Zn1 1.9468(11) 27 ?
O2 C1 1.264(5) . ?
C1 O2 1.264(5) 52 ?
C1 C2 1.497(10) . ?
C2 C3 1.742(6) . ?
C2 S1 1.742(6) 52 ?
C2 C3 1.742(6) 52 ?
C3 C4 1.814(9) . ?
C4 C4 1.24(3) 145 ?
C4 S1 1.814(9) 100 ?
C4 C3 1.814(9) 100 ?

loop_
_geom_angle_atom_site_label_1
_geom_angle_atom_site_label_2
_geom_angle_atom_site_label_3
_geom_angle
_geom_angle_site_symmetry_1
_geom_angle_site_symmetry_3
_geom_angle_publ_flag
O2 Zn1 O2 107.42(17) . 6 ?
O2 Zn1 O2 107.42(17) . 5 ?
O2 Zn1 O2 107.42(17) 6 5 ?
O2 Zn1 O1 111.45(16) . . ?
O2 Zn1 O1 111.45(16) 6 . ?
O2 Zn1 O1 111.45(16) 5 . ?
Zn1 O1 Zn1 109.5 . 52 ?
Zn1 O1 Zn1 109.5 . 74 ?
Zn1 O1 Zn1 109.5 52 74 ?
Zn1 O1 Zn1 109.5 . 27 ?
Zn1 O1 Zn1 109.5 52 27 ?
Zn1 O1 Zn1 109.5 74 27 ?
C1 O2 Zn1 130.6(5) . . ?
O2 C1 O2 126.4(8) 52 . ?
O2 C1 C2 116.8(4) 52 . ?
O2 C1 C2 116.8(4) . . ?
C1 C2 C3 114.0(3) . . ?
C1 C2 S1 114.0(3) . 52 ?
C3 C2 S1 132.1(5) . 52 ?
C1 C2 C3 114.0(3) . 52 ?
C3 C2 C3 132.1(5) . 52 ?
S1 C2 C3 0.0(4) 52 52 ?
C2 C3 C4 81.5(5) . . ?
C4 C4 C3 122.4(4) 145 . ?
C4 C4 S1 122.4(4) 145 100 ?
C3 C4 S1 115.2(8) . 100 ?
C4 C4 C3 122.4(4) 145 100 ?
C3 C4 C3 115.2(8) . 100 ?
S1 C4 C3 0.0(5) 100 100 ?

_diffrn_measured_fraction_theta_max 0.996
_diffrn_reflns_theta_full        21.20
_diffrn_measured_fraction_theta_full 0.996
_refine_diff_density_max         0.368
_refine_diff_density_min         -0.317
_refine_diff_density_rms         0.045
