####################################################################### 
# 
# This file contains crystal structure data downloaded from the 
# Cambridge Structural Database (CSD) hosted by the Cambridge 
# Crystallographic Data Centre (CCDC).
# 
# Full information about CCDC data access policies and citation 
# guidelines are available at http://www.ccdc.cam.ac.uk/access/V1 
# 
# Audit and citation data items may have been added by the CCDC. 
# Please retain this information to preserve the provenance of 
# this file and to allow appropriate attribution of the data. 
# 
#######################################################################

data_MAF-4
_audit_block_doi                 10.5517/cc10kz4p
_database_code_depnum_ccdc_archive 'CCDC 940792'
loop_
_citation_id
_citation_doi
_citation_year
1 10.1016/j.micromeso.2011.11.033 2012
_audit_update_record             
;
2013-05-22 deposited with the CCDC.	2021-12-15 downloaded from the CCDC.
;

_audit_creation_method           SHELXL-97
_chemical_name_systematic        
; 
 ? 
;
_chemical_name_common            ?
_chemical_melting_point          ?
_chemical_formula_moiety         ?
_chemical_formula_sum            'C8 H10 N4 Zn'
_chemical_formula_weight         227.57

loop_
_atom_type_symbol
_atom_type_description
_atom_type_scat_dispersion_real
_atom_type_scat_dispersion_imag
_atom_type_scat_source
C C 0.0033 0.0016 'International Tables Vol C Tables 4.2.6.8 and 6.1.1.4'
H H 0.0000 0.0000 'International Tables Vol C Tables 4.2.6.8 and 6.1.1.4'
N N 0.0061 0.0033 'International Tables Vol C Tables 4.2.6.8 and 6.1.1.4'
Zn Zn 0.2839 1.4301 'International Tables Vol C Tables 4.2.6.8 and 6.1.1.4'

_symmetry_cell_setting           cubic
_symmetry_space_group_name_H-M   I-43m

loop_
_symmetry_equiv_pos_as_xyz
'x, y, z'
'x, -y, -z'
'-x, -y, z'
'-x, y, -z'
'y, -x, -z'
'-y, -x, z'
'-y, x, -z'
'y, x, z'
'y, z, x'
'-y, -z, x'
'y, -z, -x'
'-y, z, -x'
'z, -y, -x'
'z, y, x'
'-z, y, -x'
'-z, -y, x'
'z, x, y'
'-z, x, -y'
'-z, -x, y'
'z, -x, -y'
'x, z, y'
'x, -z, -y'
'-x, z, -y'
'-x, -z, y'
'x+1/2, y+1/2, z+1/2'
'x+1/2, -y+1/2, -z+1/2'
'-x+1/2, -y+1/2, z+1/2'
'-x+1/2, y+1/2, -z+1/2'
'y+1/2, -x+1/2, -z+1/2'
'-y+1/2, -x+1/2, z+1/2'
'-y+1/2, x+1/2, -z+1/2'
'y+1/2, x+1/2, z+1/2'
'y+1/2, z+1/2, x+1/2'
'-y+1/2, -z+1/2, x+1/2'
'y+1/2, -z+1/2, -x+1/2'
'-y+1/2, z+1/2, -x+1/2'
'z+1/2, -y+1/2, -x+1/2'
'z+1/2, y+1/2, x+1/2'
'-z+1/2, y+1/2, -x+1/2'
'-z+1/2, -y+1/2, x+1/2'
'z+1/2, x+1/2, y+1/2'
'-z+1/2, x+1/2, -y+1/2'
'-z+1/2, -x+1/2, y+1/2'
'z+1/2, -x+1/2, -y+1/2'
'x+1/2, z+1/2, y+1/2'
'x+1/2, -z+1/2, -y+1/2'
'-x+1/2, z+1/2, -y+1/2'
'-x+1/2, -z+1/2, y+1/2'

_cell_length_a                   17.0544(16)
_cell_length_b                   17.0544(16)
_cell_length_c                   17.0544(16)
_cell_angle_alpha                90.00
_cell_angle_beta                 90.00
_cell_angle_gamma                90.00
_cell_volume                     4960.3(8)
_cell_formula_units_Z            12
_cell_measurement_temperature    393(2)
_cell_measurement_reflns_used    ?
_cell_measurement_theta_min      ?
_cell_measurement_theta_max      ?

_exptl_crystal_description       block
_exptl_crystal_colour            colorless
_exptl_crystal_size_max          0.22
_exptl_crystal_size_mid          0.20
_exptl_crystal_size_min          0.20
_exptl_crystal_density_meas      ?
_exptl_crystal_density_diffrn    0.914
_exptl_crystal_density_method    'not measured'
_exptl_crystal_F_000             1392
_exptl_absorpt_coefficient_mu    1.460
_exptl_absorpt_correction_type   multi-scan
_exptl_absorpt_correction_T_min  0.7394
_exptl_absorpt_correction_T_max  0.7588
_exptl_absorpt_process_details   SADABS

_exptl_special_details           
; 
 ? 
;

_diffrn_ambient_temperature      393(2)
_diffrn_radiation_wavelength     0.71073
_diffrn_radiation_type           MoK\a
_diffrn_radiation_source         'fine-focus sealed tube'
_diffrn_radiation_monochromator  graphite
_diffrn_measurement_device_type  CCD
_diffrn_measurement_method       '/w scan'
_diffrn_detector_area_resol_mean ?
_diffrn_standards_number         ?
_diffrn_standards_interval_count ?
_diffrn_standards_interval_time  ?
_diffrn_standards_decay_%        ?
_diffrn_reflns_number            9598
_diffrn_reflns_av_R_equivalents  0.0320
_diffrn_reflns_av_sigmaI/netI    0.0285
_diffrn_reflns_limit_h_min       -21
_diffrn_reflns_limit_h_max       18
_diffrn_reflns_limit_k_min       -21
_diffrn_reflns_limit_k_max       13
_diffrn_reflns_limit_l_min       -20
_diffrn_reflns_limit_l_max       21
_diffrn_reflns_theta_min         2.39
_diffrn_reflns_theta_max         25.98
_reflns_number_total             935
_reflns_number_gt                886
_reflns_threshold_expression     >2sigma(I)

_computing_data_collection       ?
_computing_cell_refinement       ?
_computing_data_reduction        ?
_computing_structure_solution    'SHELXS-97 (Sheldrick, 1990)'
_computing_structure_refinement  'SHELXL-97 (Sheldrick, 1997)'
_computing_molecular_graphics    ?
_computing_publication_material  ?

_refine_special_details          
; 
 Refinement of F^2^ against ALL reflections.  The weighted R-factor wR and 
 goodness of fit S are based on F^2^, conventional R-factors R are based 
 on F, with F set to zero for negative F^2^. The threshold expression of 
 F^2^ > 2sigma(F^2^) is used only for calculating R-factors(gt) etc. and is 
 not relevant to the choice of reflections for refinement.  R-factors based 
 on F^2^ are statistically about twice as large as those based on F, and R- 
 factors based on ALL data will be even larger. 
;

_refine_ls_structure_factor_coef Fsqd
_refine_ls_matrix_type           full
_refine_ls_weighting_scheme      calc
_refine_ls_weighting_details     
'calc w=1/[\s^2^(Fo^2^)+(0.0630P)^2^+3.4300P] where P=(Fo^2^+2Fc^2^)/3'
_atom_sites_solution_primary     direct
_atom_sites_solution_secondary   difmap
_atom_sites_solution_hydrogens   geom
_refine_ls_hydrogen_treatment    constr
_refine_ls_extinction_method     none
_refine_ls_extinction_coef       ?
_refine_ls_abs_structure_details 'Flack H D (1983), Acta Cryst. A39, 876-881'
_refine_ls_abs_structure_Flack   -0.01(4)
_refine_ls_number_reflns         935
_refine_ls_number_parameters     33
_refine_ls_number_restraints     0
_refine_ls_R_factor_all          0.0439
_refine_ls_R_factor_gt           0.0415
_refine_ls_wR_factor_ref         0.1083
_refine_ls_wR_factor_gt          0.1054
_refine_ls_goodness_of_fit_ref   1.027
_refine_ls_restrained_S_all      1.027
_refine_ls_shift/su_max          0.000
_refine_ls_shift/su_mean         0.000

loop_
_atom_site_label
_atom_site_type_symbol
_atom_site_fract_x
_atom_site_fract_y
_atom_site_fract_z
_atom_site_U_iso_or_equiv
_atom_site_adp_type
_atom_site_occupancy
_atom_site_symmetry_multiplicity
_atom_site_calc_flag
_atom_site_refinement_flags
_atom_site_disorder_assembly
_atom_site_disorder_group
Zn1 Zn 0.0000 0.5000 0.7500 0.0651(3) Uani 1 4 d S . .
N1 N 0.0904(2) 0.47085(17) 0.81715(18) 0.0697(7) Uani 1 1 d . . .
C1 C 0.1337(3) 0.4020(3) 0.8114(3) 0.0895(12) Uani 1 1 d . . .
H1A H 0.1254 0.3624 0.7749 0.107 Uiso 1 1 calc R . .
C2 C 0.12253(17) 0.5072(5) 0.87747(17) 0.0654(13) Uani 1 2 d S . .
C3 C 0.0928(3) 0.5854(4) 0.9072(3) 0.098(2) Uani 1 2 d S . .
H3A H 0.0374 0.5890 0.8987 0.117 Uiso 1 1 d R . .
H3B H 0.1192 0.6275 0.8808 0.117 Uiso 1 2 d SR . .

loop_
_atom_site_aniso_label
_atom_site_aniso_U_11
_atom_site_aniso_U_22
_atom_site_aniso_U_33
_atom_site_aniso_U_23
_atom_site_aniso_U_13
_atom_site_aniso_U_12
Zn1 0.0673(3) 0.0673(3) 0.0605(4) 0.000 0.000 0.000
N1 0.0760(18) 0.0678(17) 0.0653(16) -0.0025(12) -0.0094(14) 0.0069(13)
C1 0.095(3) 0.080(3) 0.093(3) -0.025(2) -0.021(2) 0.016(2)
C2 0.0669(14) 0.062(3) 0.0669(14) 0.000(2) -0.0010(18) 0.000(2)
C3 0.106(3) 0.081(4) 0.106(3) -0.023(3) -0.029(4) 0.023(3)

_geom_special_details            
; 
 All esds (except the esd in the dihedral angle between two l.s. planes) 
 are estimated using the full covariance matrix.  The cell esds are taken 
 into account individually in the estimation of esds in distances, angles 
 and torsion angles; correlations between esds in cell parameters are only 
 used when they are defined by crystal symmetry.  An approximate (isotropic) 
 treatment of cell esds is used for estimating esds involving l.s. planes. 
;

loop_
_geom_bond_atom_site_label_1
_geom_bond_atom_site_label_2
_geom_bond_distance
_geom_bond_site_symmetry_2
_geom_bond_publ_flag
Zn1 N1 1.983(3) 29_456 ?
Zn1 N1 1.983(3) . ?
Zn1 N1 1.983(3) 3_565 ?
Zn1 N1 1.983(3) 31_556 ?
N1 C2 1.321(5) . ?
N1 C1 1.391(5) . ?
C1 C1 1.326(9) 15_656 ?
C1 H1A 0.9300 . ?
C2 N1 1.321(5) 15_656 ?
C2 C3 1.513(10) . ?
C3 H3A 0.9584 . ?
C3 H3B 0.9602 . ?

loop_
_geom_angle_atom_site_label_1
_geom_angle_atom_site_label_2
_geom_angle_atom_site_label_3
_geom_angle
_geom_angle_site_symmetry_1
_geom_angle_site_symmetry_3
_geom_angle_publ_flag
N1 Zn1 N1 109.47(10) 29_456 . ?
N1 Zn1 N1 109.47(10) 29_456 3_565 ?
N1 Zn1 N1 109.46(19) . 3_565 ?
N1 Zn1 N1 109.46(19) 29_456 31_556 ?
N1 Zn1 N1 109.47(10) . 31_556 ?
N1 Zn1 N1 109.47(10) 3_565 31_556 ?
C2 N1 C1 103.4(4) . . ?
C2 N1 Zn1 130.9(3) . . ?
C1 N1 Zn1 125.7(3) . . ?
C1 C1 N1 109.0(2) 15_656 . ?
C1 C1 H1A 125.5 15_656 . ?
N1 C1 H1A 125.5 . . ?
N1 C2 N1 115.2(6) . 15_656 ?
N1 C2 C3 122.4(3) . . ?
N1 C2 C3 122.4(3) 15_656 . ?
C2 C3 H3A 109.7 . . ?
C2 C3 H3B 110.3 . . ?
H3A C3 H3B 110.1 . . ?

_diffrn_measured_fraction_theta_max 0.990
_diffrn_reflns_theta_full        25.98
_diffrn_measured_fraction_theta_full 0.990
_refine_diff_density_max         0.723
_refine_diff_density_min         -0.274
_refine_diff_density_rms         0.070
