####################################################################### 
# 
# This file contains crystal structure data downloaded from the 
# Cambridge Structural Database (CSD) hosted by the Cambridge 
# Crystallographic Data Centre (CCDC).
# 
# Full information about CCDC data access policies and citation 
# guidelines are available at http://www.ccdc.cam.ac.uk/access/V1 
# 
# Audit and citation data items may have been added by the CCDC. 
# Please retain this information to preserve the provenance of 
# this file and to allow appropriate attribution of the data. 
# 
#######################################################################

data_1
_audit_block_doi                 10.5517/ccwfv9f
_database_code_depnum_ccdc_archive 'CCDC 817665'
loop_
_citation_id
_citation_doi
_citation_year
1 10.1021/ja2042113 2011
_audit_update_record             
;
2011-03-16 deposited with the CCDC.	2021-12-15 downloaded from the CCDC.
;
_iucr_compatibility_tag          ?


#==============================================================================

#data_Compound_1

_chemical_name_systematic        
;
?
;
_chemical_name_common            ?
_chemical_formula_moiety         ?
_chemical_formula_structural     'Zn4 O (C6 H6 N2 O2)3'
_chemical_formula_analytical     ?
_chemical_formula_iupac          ?
_chemical_formula_sum            'C18 H18 N6 O7 Zn4'
_chemical_formula_weight         691.9
_chemical_melting_point          ?
_chemical_compound_source        synthesis

loop_
_atom_type_symbol
_atom_type_description
# _atom_type_scat_dispersion_real
# _atom_type_scat_dispersion_imag
_atom_type_scat_source

C C 'International Tables for Crystallography (Vol. IV)'
H H 'International Tables for Crystallography (Vol. IV)'
N N 'International Tables for Crystallography (Vol. IV)'
O O 'International Tables for Crystallography (Vol. IV)'
Zn Zn 'International Tables for Crystallography (Vol. IV)'

#==============================================================================

# 1.5. POWDER SPECIMEN AND CRYSTAL DATA

_space_group_crystal_system      cubic
_space_group_name_H-M_alt        Fm3m
_space_group_name_Hall           ?

loop_
_symmetry_equiv_pos_as_xyz
'-x, -y, -z'
'-x, -y, z'
'-x, -y+1/2, -z+1/2'
'-x, -y+1/2, z+1/2'
'-x, -z, -y'
'-x, -z, y'
'-x, -z+1/2, -y+1/2'
'-x, -z+1/2, y+1/2'
'-x, z, -y'
'-x, z, y'
'-x, z+1/2, -y+1/2'
'-x, z+1/2, y+1/2'
'-x, y, -z'
'-x, y, z'
'-x, y+1/2, -z+1/2'
'-x, y+1/2, z+1/2'
'-x+1/2, -y, -z+1/2'
'-x+1/2, -y, z+1/2'
'-x+1/2, -y+1/2, -z'
'-x+1/2, -y+1/2, z'
'-x+1/2, -z, -y+1/2'
'-x+1/2, -z, y+1/2'
'-x+1/2, -z+1/2, -y'
'-x+1/2, -z+1/2, y'
'-x+1/2, z, -y+1/2'
'-x+1/2, z, y+1/2'
'-x+1/2, z+1/2, -y'
'-x+1/2, z+1/2, y'
'-x+1/2, y, -z+1/2'
'-x+1/2, y, z+1/2'
'-x+1/2, y+1/2, -z'
'-x+1/2, y+1/2, z'
'-y, -x, -z'
'-y, -x, z'
'-y, -x+1/2, -z+1/2'
'-y, -x+1/2, z+1/2'
'-y, -z, -x'
'-y, -z, x'
'-y, -z+1/2, -x+1/2'
'-y, -z+1/2, x+1/2'
'-y, z, -x'
'-y, z, x'
'-y, z+1/2, -x+1/2'
'-y, z+1/2, x+1/2'
'-y, x, -z'
'-y, x, z'
'-y, x+1/2, -z+1/2'
'-y, x+1/2, z+1/2'
'-y+1/2, -x, -z+1/2'
'-y+1/2, -x, z+1/2'
'-y+1/2, -x+1/2, -z'
'-y+1/2, -x+1/2, z'
'-y+1/2, -z, -x+1/2'
'-y+1/2, -z, x+1/2'
'-y+1/2, -z+1/2, -x'
'-y+1/2, -z+1/2, x'
'-y+1/2, z, -x+1/2'
'-y+1/2, z, x+1/2'
'-y+1/2, z+1/2, -x'
'-y+1/2, z+1/2, x'
'-y+1/2, x, -z+1/2'
'-y+1/2, x, z+1/2'
'-y+1/2, x+1/2, -z'
'-y+1/2, x+1/2, z'
'-z, -x, -y'
'-z, -x, y'
'-z, -x+1/2, -y+1/2'
'-z, -x+1/2, y+1/2'
'-z, -y, -x'
'-z, -y, x'
'-z, -y+1/2, -x+1/2'
'-z, -y+1/2, x+1/2'
'-z, y, -x'
'-z, y, x'
'-z, y+1/2, -x+1/2'
'-z, y+1/2, x+1/2'
'-z, x, -y'
'-z, x, y'
'-z, x+1/2, -y+1/2'
'-z, x+1/2, y+1/2'
'-z+1/2, -x, -y+1/2'
'-z+1/2, -x, y+1/2'
'-z+1/2, -x+1/2, -y'
'-z+1/2, -x+1/2, y'
'-z+1/2, -y, -x+1/2'
'-z+1/2, -y, x+1/2'
'-z+1/2, -y+1/2, -x'
'-z+1/2, -y+1/2, x'
'-z+1/2, y, -x+1/2'
'-z+1/2, y, x+1/2'
'-z+1/2, y+1/2, -x'
'-z+1/2, y+1/2, x'
'-z+1/2, x, -y+1/2'
'-z+1/2, x, y+1/2'
'-z+1/2, x+1/2, -y'
'-z+1/2, x+1/2, y'
'z, -x, -y'
'z, -x, y'
'z, -x+1/2, -y+1/2'
'z, -x+1/2, y+1/2'
'z, -y, -x'
'z, -y, x'
'z, -y+1/2, -x+1/2'
'z, -y+1/2, x+1/2'
'z, y, -x'
'z, y, x'
'z, y+1/2, -x+1/2'
'z, y+1/2, x+1/2'
'z, x, -y'
'z, x, y'
'z, x+1/2, -y+1/2'
'z, x+1/2, y+1/2'
'z+1/2, -x, -y+1/2'
'z+1/2, -x, y+1/2'
'z+1/2, -x+1/2, -y'
'z+1/2, -x+1/2, y'
'z+1/2, -y, -x+1/2'
'z+1/2, -y, x+1/2'
'z+1/2, -y+1/2, -x'
'z+1/2, -y+1/2, x'
'z+1/2, y, -x+1/2'
'z+1/2, y, x+1/2'
'z+1/2, y+1/2, -x'
'z+1/2, y+1/2, x'
'z+1/2, x, -y+1/2'
'z+1/2, x, y+1/2'
'z+1/2, x+1/2, -y'
'z+1/2, x+1/2, y'
'y, -x, -z'
'y, -x, z'
'y, -x+1/2, -z+1/2'
'y, -x+1/2, z+1/2'
'y, -z, -x'
'y, -z, x'
'y, -z+1/2, -x+1/2'
'y, -z+1/2, x+1/2'
'y, z, -x'
'y, z, x'
'y, z+1/2, -x+1/2'
'y, z+1/2, x+1/2'
'y, x, -z'
'y, x, z'
'y, x+1/2, -z+1/2'
'y, x+1/2, z+1/2'
'y+1/2, -x, -z+1/2'
'y+1/2, -x, z+1/2'
'y+1/2, -x+1/2, -z'
'y+1/2, -x+1/2, z'
'y+1/2, -z, -x+1/2'
'y+1/2, -z, x+1/2'
'y+1/2, -z+1/2, -x'
'y+1/2, -z+1/2, x'
'y+1/2, z, -x+1/2'
'y+1/2, z, x+1/2'
'y+1/2, z+1/2, -x'
'y+1/2, z+1/2, x'
'y+1/2, x, -z+1/2'
'y+1/2, x, z+1/2'
'y+1/2, x+1/2, -z'
'y+1/2, x+1/2, z'
'x, -y, -z'
'x, -y, z'
'x, -y+1/2, -z+1/2'
'x, -y+1/2, z+1/2'
'x, -z, -y'
'x, -z, y'
'x, -z+1/2, -y+1/2'
'x, -z+1/2, y+1/2'
'x, z, -y'
'x, z, y'
'x, z+1/2, -y+1/2'
'x, z+1/2, y+1/2'
'x, y, -z'
'x, y, z'
'x, y+1/2, -z+1/2'
'x, y+1/2, z+1/2'
'x+1/2, -y, -z+1/2'
'x+1/2, -y, z+1/2'
'x+1/2, -y+1/2, -z'
'x+1/2, -y+1/2, z'
'x+1/2, -z, -y+1/2'
'x+1/2, -z, y+1/2'
'x+1/2, -z+1/2, -y'
'x+1/2, -z+1/2, y'
'x+1/2, z, -y+1/2'
'x+1/2, z, y+1/2'
'x+1/2, z+1/2, -y'
'x+1/2, z+1/2, y'
'x+1/2, y, -z+1/2'
'x+1/2, y, z+1/2'
'x+1/2, y+1/2, -z'
'x+1/2, y+1/2, z'

_cell_length_a                   20.15806(27)
_cell_length_b                   20.15806(27)
_cell_length_c                   20.15806(27)
_cell_angle_alpha                90
_cell_angle_beta                 90
_cell_angle_gamma                90
_cell_volume                     8191.18(33)
_cell_formula_units_Z            8
_cell_measurement_temperature    298

_pd_calibration_special_details  
; ?
;
_cell_special_details            
; ?
;

_exptl_crystal_density_diffrn    0.98
_exptl_crystal_density_meas      ?
_exptl_crystal_density_method    'not measured'
_exptl_crystal_F_000             2752

# The next three fields give the specimen dimensions in mm. The equatorial
# plane contains the incident and diffracted beam.
_pd_spec_size_axial              15 # perpendicular to
# equatorial plane

_pd_spec_size_equat              20 # parallel to
# scattering vector
# in transmission

_pd_spec_size_thick              0.2 # parallel to
# scattering vector
# in reflection

# The next five fields are character fields that describe the specimen.

_pd_spec_mounting                
; packed powder pellet
;
_pd_spec_mount_mode              reflection # options are 'reflection'
# or 'transmission'

_pd_spec_shape                   flat_sheet # options are 'cylinder',
# 'flat_sheet' or 'irregular'

_pd_char_particle_morphology     plate-like
_pd_char_colour                  white # use ICDD colour descriptions



# The next four fields are normally only needed for transmission experiments.
_exptl_absorpt_coefficient_mu    ?
_exptl_absorpt_correction_type   ?
_exptl_absorpt_correction_T_min  ?
_exptl_absorpt_correction_T_max  ?

#==============================================================================

# 1.6. EXPERIMENTAL DATA

_exptl_special_details           
; ?
;

# This following item is used to identify the equipment used to record the
# powder pattern when the diffractogram was measured at a laboratory
# other than the authors' home institution, e.g. when neutron or synchrotron
# radiation is used.

_pd_instr_location               
; ?
;

_diffrn_ambient_temperature      298
_diffrn_source_target            Cu
_diffrn_source_type              'sealed X-ray tube'
_diffrn_measurement_device_type  'Bruker AXS D8 Advance'
_diffrn_detector_type            'Bruker AXS Lynxeye linear PSD'
_pd_meas_scan_method             step # options are 'step', 'cont',
# 'tof', 'fixed' or
# 'disp' (= dispersive)
_pd_meas_special_details         
; ?
;

# The following six items are used for angular dispersive measurements only.

loop_
_diffrn_radiation_type
'Cu K\a'
_diffrn_radiation_wavelength     
;
CuK\a~1~ 1.54056
CuK\a~2~ 1.54439
;
_diffrn_radiation_monochromator  'Nickel filter'

# The following four items give details of the measured (not processed)
# powder pattern. Angles are in degrees.

_pd_meas_number_of_points        5001
_pd_meas_2theta_range_min        5
_pd_meas_2theta_range_max        105
_pd_meas_2theta_range_inc        0.02

# The following three items are used for time-of-flight measurements only.

_pd_instr_dist_src/spec          ?
_pd_instr_dist_spec/detc         ?
_pd_meas_2theta_fixed            ?

# The following fields are used to identify the programs used.

_computing_data_collection       ?
_computing_cell_refinement       TOPAS-R
_computing_data_reduction        ?
_computing_structure_solution    TOPAS-R
_computing_structure_refinement  TOPAS-R
_computing_molecular_graphics    ?
_computing_publication_material  TOPAS-R

#==============================================================================

# 1.7. REFINEMENT DATA

# Use the next field to give any special details about the fitting of the
# powder pattern.

_pd_proc_ls_special_details      
; The use of a rigid body description for the crystallographically
independent portion of the 3,5-dimethyl-4-carboxypyrazolate spacer
does not allow the derivation of statistically meaningful s.u.'s
for its atoms.

Being the spacer located on a symmetry element, s.u.'s are available
only for the translation of the rigid body (TX, TY, TZ)
and the rotation of its methyl group (RM):

TX, TY, TZ 0.4698(3), 0.25, 0.25
RM -287.(11)

for the rigid body described by:

z_matrix B
z_matrix C1 B 0.72
z_matrix C2 C1 1.36 B 126
z_matrix N1 C2 1.36 C1 108 B 180
z_matrix C4 C2 1.50 C1 126 B 0
z_matrix H41 C4 0.95 C2 126 C1 0
z_matrix H42 C4 0.95 C2 126 C1 120
z_matrix H43 C4 0.95 C2 126 C1 240
z_matrix C3 C1 1.44 C2 126 N1 180
z_matrix O1 C3 1.25 C1 120 C2 0

B being a dummy atom
;

# The next three items are given as text
_pd_proc_ls_profile_function     'fundamental parameters approach'
_pd_proc_ls_background_function  'Chebychev polynomial'
_pd_proc_ls_pref_orient_corr     ?
_pd_proc_ls_prof_R_factor        0.073
_pd_proc_ls_prof_wR_factor       0.101
_pd_proc_ls_prof_wR_expected     0.014

_refine_special_details          
; ?
;

_refine_ls_structure_factor_coef Inet
_refine_ls_matrix_type           fullcycle
_refine_ls_weighting_scheme      1/[Y~i~]
_refine_ls_hydrogen_treatment    ?
_refine_ls_extinction_method     none
_refine_ls_extinction_coef       ?
_refine_ls_number_parameters     23
_refine_ls_number_restraints     0
_refine_ls_number_constraints    ?
# The following item is 'CHI squared'
_refine_ls_goodness_of_fit_all   ?

_refine_ls_restrained_S_all      ?
_refine_ls_restrained_S_obs      ?
_refine_ls_shift/su_max          .01
_refine_ls_shift/su_mean         ?


# The following four items apply to angular dispersive measurements.
# 2theta minimum, maximum and increment (in degrees) are for the
# intensities used in the refinement.
_pd_proc_2theta_range_min        6
_pd_proc_2theta_range_max        105
_pd_proc_2theta_range_inc        0.02

loop_
_pd_proc_wavelength
1.540562
1.544390

_pd_block_diffractogram_id       ? # The id used for the block
# containing the powder
# pattern profile (section 11).

# Give appropriate details in the next two text fields.
_pd_proc_info_excluded_regions   ?
_pd_proc_info_data_reduction     ?

#==============================================================================

# 1.8. ATOMIC COORDINATES AND DISPLACEMENT PARAMETERS

loop_
_atom_site_label
_atom_site_type_symbol
_atom_site_symmetry_multiplicity
_atom_site_fract_x
_atom_site_fract_y
_atom_site_fract_z
_atom_site_occupancy
_atom_site_B_iso_or_equiv
Zn Zn 32 0.305651(45) 0.194349(45) 0.194349(45) 1 1.051(72)
O2 O 8 0.25 0.25 0.25 1 3.051(72)
C1 C 48 0.5054753 0.25 0.25 0.5 3.051(72)
C2 C 96 0.5451313 0.2114049 0.2114049 0.5 3.051(72)
N1 N 96 0.6092961 0.2261469 0.2261469 0.5 3.051(72)
C3 C 48 0.4315595 0.25 0.25 0.5 3.051(72)
O1 O 96 0.4005546 0.2120268 0.2120268 0.5 3.051(72)
C4 C 96 0.5222901 0.1616966 0.1616966 0.5 3.051(72)
H41 H 192 0.5051898 0.183995 0.1238632 0.25 3.051(72)
H42 H 192 0.5585691 0.1345126 0.1488175 0.25 3.051(72)
H43 H 192 0.4885275 0.1348438 0.1806708 0.25 3.051(72)



