####################################################################### 
# 
# This file contains crystal structure data downloaded from the 
# Cambridge Structural Database (CSD) hosted by the Cambridge 
# Crystallographic Data Centre (CCDC).
# 
# Full information about CCDC data access policies and citation 
# guidelines are available at http://www.ccdc.cam.ac.uk/access/V1 
# 
# Audit and citation data items may have been added by the CCDC. 
# Please retain this information to preserve the provenance of 
# this file and to allow appropriate attribution of the data. 
# 
#######################################################################

data_cuteia
_audit_block_doi                 10.5517/ccx8tgf
_database_code_depnum_ccdc_archive 'CCDC 842625'
loop_
_citation_id
_citation_doi
_citation_year
1 10.1002/chem.201103078 2011
_audit_update_record             
;
2011-09-01 deposited with the CCDC.	2021-12-15 downloaded from the CCDC.
;
#TrackingRef 'cuteia-110907.cif'


_audit_creation_method           SHELXL-97
_chemical_name_systematic        
;
?
;
_chemical_name_common            ?
_chemical_melting_point          ?
_chemical_formula_moiety         ?
_chemical_formula_sum            'C116.50 H188 Cu4 N8 O23.50'
_chemical_formula_weight         2330.91

loop_
_atom_type_symbol
_atom_type_description
_atom_type_scat_dispersion_real
_atom_type_scat_dispersion_imag
_atom_type_scat_source
C C 0.0033 0.0016 'International Tables Vol C Tables 4.2.6.8 and 6.1.1.4'
H H 0.0000 0.0000 'International Tables Vol C Tables 4.2.6.8 and 6.1.1.4'
N N 0.0061 0.0033 'International Tables Vol C Tables 4.2.6.8 and 6.1.1.4'
O O 0.0106 0.0060 'International Tables Vol C Tables 4.2.6.8 and 6.1.1.4'
Cu Cu 0.3201 1.2651 'International Tables Vol C Tables 4.2.6.8 and 6.1.1.4'

_symmetry_cell_setting           Tetragonal
_symmetry_space_group_name_H-M   P4(2)/nnm

loop_
_symmetry_equiv_pos_as_xyz
'x, y, z'
'-x+1/2, -y+1/2, z'
'-y+1/2, x, z+1/2'
'y, -x+1/2, z+1/2'
'-x+1/2, y, -z+1/2'
'x, -y+1/2, -z+1/2'
'y, x, -z'
'-y+1/2, -x+1/2, -z'
'-x, -y, -z'
'x-1/2, y-1/2, -z'
'y-1/2, -x, -z-1/2'
'-y, x-1/2, -z-1/2'
'x-1/2, -y, z-1/2'
'-x, y-1/2, z-1/2'
'-y, -x, z'
'y-1/2, x-1/2, z'

_cell_length_a                   24.8076(3)
_cell_length_b                   24.8076(3)
_cell_length_c                   12.2233(2)
_cell_angle_alpha                90.00
_cell_angle_beta                 90.00
_cell_angle_gamma                90.00
_cell_volume                     7522.43(18)
_cell_formula_units_Z            2
_cell_measurement_temperature    293(2)
_cell_measurement_reflns_used    ?
_cell_measurement_theta_min      ?
_cell_measurement_theta_max      ?

_exptl_crystal_description       block
_exptl_crystal_colour            green
_exptl_crystal_size_max          0.27
_exptl_crystal_size_mid          0.24
_exptl_crystal_size_min          0.23
_exptl_crystal_density_meas      ?
_exptl_crystal_density_diffrn    1.029
_exptl_crystal_density_method    'not measured'
_exptl_crystal_F_000             2494
_exptl_absorpt_coefficient_mu    0.614
_exptl_absorpt_correction_type   none
_exptl_absorpt_correction_T_min  0.8517
_exptl_absorpt_correction_T_max  0.8717
_exptl_absorpt_process_details   ?

_exptl_special_details           
;
?
;

_diffrn_ambient_temperature      293(2)
_diffrn_radiation_wavelength     0.71073
_diffrn_radiation_type           MoK\a
_diffrn_radiation_source         'fine-focus sealed tube'
_diffrn_radiation_monochromator  graphite
_diffrn_measurement_device_type  'multiwire proportional'
_diffrn_measurement_method       'phi and omega scans'
_diffrn_detector_area_resol_mean ?
_diffrn_standards_number         ?
_diffrn_standards_interval_count ?
_diffrn_standards_interval_time  ?
_diffrn_standards_decay_%        ?
_diffrn_reflns_number            11176
_diffrn_reflns_av_R_equivalents  0.0496
_diffrn_reflns_av_sigmaI/netI    0.0415
_diffrn_reflns_limit_h_min       -20
_diffrn_reflns_limit_h_max       20
_diffrn_reflns_limit_k_min       -28
_diffrn_reflns_limit_k_max       28
_diffrn_reflns_limit_l_min       -14
_diffrn_reflns_limit_l_max       14
_diffrn_reflns_theta_min         1.16
_diffrn_reflns_theta_max         24.13
_reflns_number_total             3084
_reflns_number_gt                1810
_reflns_threshold_expression     >2sigma(I)

_computing_data_collection       'Bruker FRAMBO'
_computing_cell_refinement       'Bruker FRAMBO'
_computing_data_reduction        'Bruker SAINT'
_computing_structure_solution    'SHELXS-97 (Sheldrick, 1990)'
_computing_structure_refinement  'SHELXL-97 (Sheldrick, 1997)'
_computing_molecular_graphics    'Bruker SHELXTL'
_computing_publication_material  'Bruker SHELXTL'

_refine_special_details          
;
Due to disorder of ethyl group and tert-butyl group in the structure,
some bond lengths were refined with 'dfix' instruction.
'simu' and 'delu' instructions were also used for all
the atoms to restrain adps of the neighboring atoms to be reasonable.
;

_refine_ls_structure_factor_coef Fsqd
_refine_ls_matrix_type           full
_refine_ls_weighting_scheme      calc
_refine_ls_weighting_details     
'calc w=1/[\s^2^(Fo^2^)+(0.1298P)^2^+0.0000P] where P=(Fo^2^+2Fc^2^)/3'
_atom_sites_solution_primary     direct
_atom_sites_solution_secondary   difmap
_atom_sites_solution_hydrogens   geom
_refine_ls_hydrogen_treatment    constr
_refine_ls_extinction_method     none
_refine_ls_extinction_coef       ?
_refine_ls_number_reflns         3084
_refine_ls_number_parameters     215
_refine_ls_number_restraints     416
_refine_ls_R_factor_all          0.1146
_refine_ls_R_factor_gt           0.0761
_refine_ls_wR_factor_ref         0.2242
_refine_ls_wR_factor_gt          0.2050
_refine_ls_goodness_of_fit_ref   1.082
_refine_ls_restrained_S_all      1.184
_refine_ls_shift/su_max          0.000
_refine_ls_shift/su_mean         0.000

loop_
_atom_site_label
_atom_site_type_symbol
_atom_site_fract_x
_atom_site_fract_y
_atom_site_fract_z
_atom_site_U_iso_or_equiv
_atom_site_adp_type
_atom_site_occupancy
_atom_site_symmetry_multiplicity
_atom_site_calc_flag
_atom_site_refinement_flags
_atom_site_disorder_assembly
_atom_site_disorder_group
Cu1 Cu 0.52020(2) 0.02020(2) 0.59174(5) 0.0958(5) Uani 1 2 d SU . .
O1 O 0.5215(2) -0.05710(19) 0.6325(3) 0.1332(18) Uani 1 1 d U A .
O2 O 0.48741(19) -0.09003(16) 0.4815(3) 0.1233(15) Uani 1 1 d U . .
N1 N 0.54531(16) 0.04531(16) 0.7504(4) 0.129(2) Uani 1 2 d SDU . .
N2 N 0.58179(16) 0.08179(16) 0.8957(4) 0.147(3) Uani 1 2 d SDU . .
C1 C 0.5229(2) 0.0229(2) 0.8417(7) 0.169(4) Uani 1 2 d SDU . .
H1 H 0.4964 -0.0036 0.8423 0.202 Uiso 1 2 calc SR . .
C2 C 0.5453(2) 0.0453(2) 0.9300(6) 0.187(5) Uani 1 2 d SDU . .
H2 H 0.5372 0.0372 1.0024 0.224 Uiso 1 2 calc SR . .
C3 C 0.58120(18) 0.08120(18) 0.7836(4) 0.109(3) Uani 1 2 d SDU . .
C4 C 0.6149(2) 0.1149(2) 0.7157(6) 0.126(3) Uani 1 2 d SDU . .
H4A H 0.6200 0.0971 0.6458 0.152 Uiso 0.50 1 calc PR . .
H4B H 0.6500 0.1181 0.7500 0.152 Uiso 0.50 1 calc PR . .
C5 C 0.5929(10) 0.1713(8) 0.6949(19) 0.231(9) Uani 0.50 1 d PDU . .
H5A H 0.6169 0.1905 0.6473 0.347 Uiso 0.50 1 calc PR . .
H5B H 0.5898 0.1902 0.7631 0.347 Uiso 0.50 1 calc PR . .
H5C H 0.5580 0.1687 0.6613 0.347 Uiso 0.50 1 calc PR . .
C6 C 0.6160(2) 0.1160(2) 0.9642(5) 0.113(3) Uani 1 2 d SDU . .
C7 C 0.6087(4) 0.1723(4) 0.9659(7) 0.097(3) Uani 0.50 1 d PDU . .
H7 H 0.5831 0.1887 0.9212 0.116 Uiso 0.50 1 calc PR . .
C8 C 0.6404(4) 0.2028(4) 1.0354(7) 0.081(3) Uani 0.50 1 d PDU . .
H8 H 0.6358 0.2400 1.0376 0.097 Uiso 0.50 1 calc PR . .
C9 C 0.67878(15) 0.17878(15) 1.1020(4) 0.0629(15) Uani 1 2 d SDU . .
C10 C 0.6825(5) 0.1230(3) 1.1006(8) 0.097(3) Uani 0.50 1 d PDU . .
H10 H 0.7061 0.1058 1.1484 0.117 Uiso 0.50 1 calc PR . .
C11 C 0.6520(5) 0.0930(4) 1.0301(9) 0.125(4) Uani 0.50 1 d PDU . .
H11 H 0.6565 0.0558 1.0281 0.150 Uiso 0.50 1 calc PR . .
C12 C 0.71357(13) 0.21357(13) 1.1763(3) 0.0463(12) Uani 1 2 d SU . .
C13 C 0.7500 0.2500 1.1059(4) 0.0459(16) Uani 1 4 d SU . .
H13A H 0.7724 0.2276 1.0592 0.055 Uiso 0.50 2 calc SPR . .
H13B H 0.7276 0.2724 1.0592 0.055 Uiso 0.50 2 calc SPR . .
C14 C 0.6798(2) 0.2500 1.2500 0.0564(14) Uani 1 2 d SU . .
H14A H 0.6568 0.2277 1.2954 0.068 Uiso 0.50 1 calc PR . .
H14B H 0.6568 0.2723 1.2046 0.068 Uiso 0.50 1 calc PR . .
C15 C 0.5043(3) -0.0944(3) 0.5761(6) 0.117(2) Uani 1 1 d DU . .
C16 C 0.5093(5) -0.1524(6) 0.6246(11) 0.176(4) Uani 0.801(19) 1 d PDU A 1
C16' C 0.5002(14) -0.149(2) 0.634(3) 0.171(9) Uani 0.199(19) 1 d PDU A 2
C17 C 0.4633(8) -0.1866(6) 0.5873(14) 0.241(9) Uani 0.801(19) 1 d PDU A 1
H17A H 0.4299 -0.1700 0.6086 0.361 Uiso 0.801(19) 1 calc PR A 1
H17B H 0.4660 -0.2216 0.6201 0.361 Uiso 0.801(19) 1 calc PR A 1
H17C H 0.4644 -0.1900 0.5091 0.361 Uiso 0.801(19) 1 calc PR A 1
C17' C 0.491(3) -0.1926(15) 0.542(5) 0.185(15) Uani 0.199(19) 1 d PDU A 2
H17D H 0.5087 -0.1817 0.4764 0.277 Uiso 0.199(19) 1 calc PR A 2
H17E H 0.4529 -0.1963 0.5287 0.277 Uiso 0.199(19) 1 calc PR A 2
H17F H 0.5051 -0.2265 0.5665 0.277 Uiso 0.199(19) 1 calc PR A 2
C18 C 0.5065(11) -0.1483(6) 0.7492(10) 0.253(10) Uani 0.801(19) 1 d PDU A 1
H18A H 0.4723 -0.1333 0.7703 0.379 Uiso 0.801(19) 1 calc PR A 1
H18B H 0.5350 -0.1254 0.7750 0.379 Uiso 0.801(19) 1 calc PR A 1
H18C H 0.5104 -0.1835 0.7807 0.379 Uiso 0.801(19) 1 calc PR A 1
C18' C 0.556(3) -0.156(2) 0.697(6) 0.233(18) Uani 0.199(19) 1 d PDU A 2
H18D H 0.5817 -0.1721 0.6483 0.350 Uiso 0.199(19) 1 calc PR A 2
H18E H 0.5503 -0.1800 0.7584 0.350 Uiso 0.199(19) 1 calc PR A 2
H18F H 0.5685 -0.1222 0.7221 0.350 Uiso 0.199(19) 1 calc PR A 2
C19 C 0.5626(7) -0.1762(7) 0.593(2) 0.294(10) Uani 0.801(19) 1 d PDU A 1
H19A H 0.5911 -0.1528 0.6170 0.442 Uiso 0.801(19) 1 calc PR A 1
H19B H 0.5643 -0.1802 0.5150 0.442 Uiso 0.801(19) 1 calc PR A 1
H19C H 0.5667 -0.2109 0.6270 0.442 Uiso 0.801(19) 1 calc PR A 1
C19' C 0.450(3) -0.1438(19) 0.716(4) 0.218(18) Uani 0.199(19) 1 d PDU A 2
H19D H 0.4626 -0.1298 0.7847 0.327 Uiso 0.199(19) 1 calc PR A 2
H19E H 0.4347 -0.1787 0.7265 0.327 Uiso 0.199(19) 1 calc PR A 2
H19F H 0.4240 -0.1199 0.6853 0.327 Uiso 0.199(19) 1 calc PR A 2

loop_
_atom_site_aniso_label
_atom_site_aniso_U_11
_atom_site_aniso_U_22
_atom_site_aniso_U_33
_atom_site_aniso_U_23
_atom_site_aniso_U_13
_atom_site_aniso_U_12
Cu1 0.1222(7) 0.1222(7) 0.0429(5) -0.0074(2) -0.0074(2) -0.0710(6)
O1 0.194(5) 0.126(3) 0.080(2) 0.018(2) -0.028(2) -0.078(3)
O2 0.177(4) 0.103(3) 0.090(3) -0.007(2) -0.016(2) -0.067(3)
N1 0.168(4) 0.168(4) 0.053(3) -0.0120(17) -0.0120(17) -0.100(5)
N2 0.194(5) 0.194(5) 0.052(3) -0.0142(17) -0.0142(17) -0.132(6)
C1 0.208(6) 0.208(6) 0.090(5) -0.009(3) -0.009(3) -0.145(6)
C2 0.249(8) 0.249(8) 0.061(4) -0.010(2) -0.010(2) -0.175(9)
C3 0.137(4) 0.137(4) 0.051(3) -0.0146(18) -0.0146(18) -0.077(5)
C4 0.155(5) 0.155(5) 0.068(4) -0.011(2) -0.011(2) -0.086(6)
C5 0.265(17) 0.186(11) 0.242(16) 0.067(12) -0.058(14) -0.061(12)
C6 0.141(5) 0.141(5) 0.056(4) -0.014(2) -0.014(2) -0.081(6)
C7 0.092(8) 0.144(7) 0.055(6) -0.006(5) -0.020(5) -0.043(6)
C8 0.077(7) 0.108(6) 0.057(5) -0.010(5) -0.031(4) -0.001(5)
C9 0.075(2) 0.075(2) 0.038(3) -0.0051(16) -0.0051(16) -0.020(3)
C10 0.156(10) 0.075(5) 0.060(6) -0.011(5) -0.031(5) -0.024(6)
C11 0.200(12) 0.089(7) 0.086(8) -0.004(6) -0.042(7) -0.064(7)
C12 0.0526(19) 0.0526(19) 0.034(2) -0.0032(13) -0.0032(13) -0.006(2)
C13 0.053(3) 0.053(3) 0.032(3) 0.000 0.000 0.010(3)
C14 0.052(3) 0.081(4) 0.037(3) -0.002(2) 0.000 0.000
C15 0.141(5) 0.108(4) 0.101(4) 0.011(3) -0.008(4) -0.056(4)
C16 0.237(11) 0.125(7) 0.166(7) 0.046(6) -0.022(8) -0.071(7)
C16' 0.23(2) 0.132(12) 0.151(16) 0.047(10) -0.005(14) -0.08(2)
C17 0.345(18) 0.158(12) 0.220(15) 0.051(10) -0.037(13) -0.143(13)
C17' 0.23(3) 0.108(13) 0.21(3) 0.020(18) 0.01(2) -0.05(2)
C18 0.40(3) 0.196(13) 0.166(8) 0.100(8) -0.065(11) -0.113(15)
C18' 0.31(3) 0.17(3) 0.22(4) 0.08(3) -0.07(3) -0.02(3)
C19 0.314(16) 0.183(15) 0.39(3) 0.062(17) -0.027(16) 0.045(11)
C19' 0.32(3) 0.15(3) 0.18(3) 0.06(2) 0.07(3) -0.08(3)

_geom_special_details            
;
All esds (except the esd in the dihedral angle between two l.s. planes)
are estimated using the full covariance matrix. The cell esds are taken
into account individually in the estimation of esds in distances, angles
and torsion angles; correlations between esds in cell parameters are only
used when they are defined by crystal symmetry. An approximate (isotropic)
treatment of cell esds is used for estimating esds involving l.s. planes.
;

loop_
_geom_bond_atom_site_label_1
_geom_bond_atom_site_label_2
_geom_bond_distance
_geom_bond_site_symmetry_2
_geom_bond_publ_flag
Cu1 O2 1.959(4) 8_556 ?
Cu1 O2 1.959(4) 9_656 ?
Cu1 O1 1.982(5) . ?
Cu1 O1 1.982(5) 16_655 ?
Cu1 N1 2.130(5) . ?
Cu1 Cu1 2.6531(13) 9_656 ?
O1 C15 1.230(7) . ?
O2 C15 1.235(7) . ?
O2 Cu1 1.959(4) 9_656 ?
N1 C3 1.323(7) . ?
N1 C1 1.366(9) . ?
N2 C2 1.346(9) . ?
N2 C3 1.371(7) . ?
N2 C6 1.463(8) . ?
C1 C2 1.336(9) . ?
C3 C4 1.445(10) . ?
C4 C5 1.52(2) . ?
C6 C11 1.331(10) 16_655 ?
C6 C11 1.331(10) . ?
C6 C7 1.410(10) 16_655 ?
C6 C7 1.410(10) . ?
C7 C8 1.383(9) . ?
C8 C9 1.388(8) . ?
C8 C11 1.725(14) 16_655 ?
C9 C10 1.386(9) 16_655 ?
C9 C10 1.386(9) . ?
C9 C8 1.388(8) 16_655 ?
C9 C12 1.521(6) . ?
C10 C11 1.368(10) . ?
C11 C8 1.725(14) 16_655 ?
C12 C14 1.527(4) . ?
C12 C14 1.527(4) 12_658 ?
C12 C13 1.540(6) . ?
C13 C12 1.540(6) 2_655 ?
C14 C12 1.527(4) 11_668 ?
C15 C16' 1.52(5) . ?
C15 C16 1.562(18) . ?
C16 C17 1.493(15) . ?
C16 C19 1.500(15) . ?
C16 C18 1.529(15) . ?
C16' C17' 1.58(4) . ?
C16' C18' 1.59(4) . ?
C16' C19' 1.59(4) . ?

loop_
_geom_angle_atom_site_label_1
_geom_angle_atom_site_label_2
_geom_angle_atom_site_label_3
_geom_angle
_geom_angle_site_symmetry_1
_geom_angle_site_symmetry_3
_geom_angle_publ_flag
O2 Cu1 O2 87.8(3) 8_556 9_656 ?
O2 Cu1 O1 90.4(2) 8_556 . ?
O2 Cu1 O1 166.47(16) 9_656 . ?
O2 Cu1 O1 166.47(16) 8_556 16_655 ?
O2 Cu1 O1 90.4(2) 9_656 16_655 ?
O1 Cu1 O1 88.2(3) . 16_655 ?
O2 Cu1 N1 100.69(16) 8_556 . ?
O2 Cu1 N1 100.69(16) 9_656 . ?
O1 Cu1 N1 92.82(16) . . ?
O1 Cu1 N1 92.83(16) 16_655 . ?
O2 Cu1 Cu1 84.91(11) 8_556 9_656 ?
O2 Cu1 Cu1 84.91(11) 9_656 9_656 ?
O1 Cu1 Cu1 81.57(12) . 9_656 ?
O1 Cu1 Cu1 81.57(12) 16_655 9_656 ?
N1 Cu1 Cu1 172.15(17) . 9_656 ?
C15 O1 Cu1 125.5(4) . . ?
C15 O2 Cu1 122.5(4) . 9_656 ?
C3 N1 C1 107.3(5) . . ?
C3 N1 Cu1 132.3(4) . . ?
C1 N1 Cu1 120.4(4) . . ?
C2 N2 C3 107.3(5) . . ?
C2 N2 C6 126.9(5) . . ?
C3 N2 C6 125.8(6) . . ?
C2 C1 N1 108.7(6) . . ?
C1 C2 N2 107.9(6) . . ?
N1 C3 N2 108.7(5) . . ?
N1 C3 C4 127.0(5) . . ?
N2 C3 C4 124.2(5) . . ?
C3 C4 C5 114.8(10) . . ?
C11 C6 C11 102.1(11) 16_655 . ?
C11 C6 C7 120.2(6) 16_655 16_655 ?
C11 C6 C7 43.2(6) . 16_655 ?
C11 C6 C7 43.2(6) 16_655 . ?
C11 C6 C7 120.2(6) . . ?
C7 C6 C7 104.8(8) 16_655 . ?
C11 C6 N2 119.1(5) 16_655 . ?
C11 C6 N2 119.1(5) . . ?
C7 C6 N2 120.6(4) 16_655 . ?
C7 C6 N2 120.6(4) . . ?
C8 C7 C6 118.5(7) . . ?
C7 C8 C9 121.1(7) . . ?
C7 C8 C11 35.9(5) . 16_655 ?
C9 C8 C11 100.2(7) . 16_655 ?
C10 C9 C10 97.6(10) 16_655 . ?
C10 C9 C8 117.8(6) 16_655 16_655 ?
C10 C9 C8 43.9(5) . 16_655 ?
C10 C9 C8 43.9(5) 16_655 . ?
C10 C9 C8 117.8(6) . . ?
C8 C9 C8 104.2(8) 16_655 . ?
C10 C9 C12 122.4(4) 16_655 . ?
C10 C9 C12 122.4(4) . . ?
C8 C9 C12 119.7(4) 16_655 . ?
C8 C9 C12 119.7(4) . . ?
C11 C10 C9 121.0(8) . . ?
C6 C11 C10 121.2(8) . . ?
C6 C11 C8 102.8(7) . 16_655 ?
C10 C11 C8 36.9(5) . 16_655 ?
C9 C12 C14 112.1(3) . . ?
C9 C12 C14 112.1(3) . 12_658 ?
C14 C12 C14 107.5(3) . 12_658 ?
C9 C12 C13 109.4(4) . . ?
C14 C12 C13 107.7(2) . . ?
C14 C12 C13 107.7(2) 12_658 . ?
C12 C13 C12 112.1(5) 2_655 . ?
C12 C14 C12 113.5(5) . 11_668 ?
O1 C15 O2 125.3(6) . . ?
O1 C15 C16' 115.3(13) . . ?
O2 C15 C16' 119.3(13) . . ?
O1 C15 C16 116.9(7) . . ?
O2 C15 C16 117.5(7) . . ?
C16' C15 C16 10.0(14) . . ?
C17 C16 C19 111.9(13) . . ?
C17 C16 C18 107.9(11) . . ?
C19 C16 C18 108.8(12) . . ?
C17 C16 C15 110.3(11) . . ?
C19 C16 C15 109.6(11) . . ?
C18 C16 C15 108.2(10) . . ?
C15 C16' C17' 107(3) . . ?
C15 C16' C18' 106(2) . . ?
C17' C16' C18' 113(2) . . ?
C15 C16' C19' 106(2) . . ?
C17' C16' C19' 112(2) . . ?
C18' C16' C19' 112(2) . . ?

_diffrn_measured_fraction_theta_max 0.988
_diffrn_reflns_theta_full        24.13
_diffrn_measured_fraction_theta_full 0.988
_refine_diff_density_max         0.335
_refine_diff_density_min         -0.430
_refine_diff_density_rms         0.065

# SQUEEZE RESULTS (APPEND TO CIF)
# Note: Data are Listed for all Voids in the P1 Unit Cell
# i.e. Centre of Gravity, Solvent Accessible Volume,
# Recovered number of Electrons in the Void and
# Details about the Squeezed Material
loop_
_platon_squeeze_void_nr
_platon_squeeze_void_average_x
_platon_squeeze_void_average_y
_platon_squeeze_void_average_z
_platon_squeeze_void_volume
_platon_squeeze_void_count_electrons
_platon_squeeze_void_content
1 0.250 0.250 -0.049 1302 549 ' '
2 0.750 0.750 0.003 1302 549 ' '
3 0.658 0.342 0.041 8 1 ' '
4 0.842 0.158 0.041 8 1 ' '
5 0.250 0.750 0.250 95 50 ' '
6 0.658 0.158 0.458 8 1 ' '
7 0.842 0.342 0.458 8 1 ' '
8 0.158 0.658 0.541 8 1 ' '
9 0.342 0.842 0.541 8 1 ' '
10 0.750 0.250 0.750 95 50 ' '
11 0.158 0.842 0.958 8 1 ' '
12 0.342 0.658 0.958 8 1 ' '
_platon_squeeze_details          
;
;


