####################################################################### 
# 
# This file contains crystal structure data downloaded from the 
# Cambridge Structural Database (CSD) hosted by the Cambridge 
# Crystallographic Data Centre (CCDC).
# 
# Full information about CCDC data access policies and citation 
# guidelines are available at http://www.ccdc.cam.ac.uk/access/V1 
# 
# Audit and citation data items may have been added by the CCDC. 
# Please retain this information to preserve the provenance of 
# this file and to allow appropriate attribution of the data. 
# 
#######################################################################

data_SUXNEF
_audit_block_doi                 10.5517/ccv9jd1
#This CIF has been generated from an entry in the Cambridge Structural Database
_database_code_depnum_ccdc_archive 'CCDC 783723'
_database_code_CSD               SUXNEF
loop_
_citation_id
_citation_doi
_citation_year
1 10.1039/c0cc01170c 2010
_audit_creation_method           'Created from the CSD'
_audit_update_record             
;
2021-12-14 downloaded from the CCDC.
;
_chemical_name_common            Banasorb-22
_chemical_formula_moiety         '(C27 H9 F9 O16 Zn4)n,5n(C5 H11 N1 O1)'
_chemical_name_systematic        
'catena-(tris(\m~4~-2-(trifluoromethoxy)terephthalato)-(\m~4~-oxo)-tetra-zinc N,N-diethylformamide solvate)'
_chemical_absolute_configuration unk
_diffrn_ambient_temperature      297
_exptl_crystal_density_diffrn    1.186
#These two values have been output from a single CSD field.
_refine_ls_R_factor_gt           0.1068
_refine_ls_wR_factor_gt          0.1068
_diffrn_radiation_probe          x-ray
_symmetry_cell_setting           cubic
_symmetry_space_group_name_H-M   'F m 3 m'
_symmetry_Int_Tables_number      225
_space_group_name_Hall           '-F 4 2 3'
loop_
_symmetry_equiv_pos_site_id
_symmetry_equiv_pos_as_xyz
1 x,y,z
2 -y,x,z
3 x,-y,-z
4 z,x,y
5 -x,-y,z
6 y,x,-z
7 -x,z,y
8 y,-x,z
9 -x,y,-z
10 -z,-x,y
11 -y,-x,-z
12 x,-z,y
13 z,-x,-y
14 -x,-z,-y
15 -z,x,-y
16 x,z,-y
17 y,z,x
18 z,-y,x
19 -z,y,x
20 z,y,-x
21 y,-z,-x
22 -z,-y,-x
23 -y,z,-x
24 -y,-z,x
25 x,1/2+y,1/2+z
26 -y,1/2+x,1/2+z
27 x,1/2-y,1/2-z
28 z,1/2+x,1/2+y
29 -x,1/2-y,1/2+z
30 y,1/2+x,1/2-z
31 -x,1/2+z,1/2+y
32 y,1/2-x,1/2+z
33 -x,1/2+y,1/2-z
34 -z,1/2-x,1/2+y
35 -y,1/2-x,1/2-z
36 x,1/2-z,1/2+y
37 z,1/2-x,1/2-y
38 -x,1/2-z,1/2-y
39 -z,1/2+x,1/2-y
40 x,1/2+z,1/2-y
41 y,1/2+z,1/2+x
42 z,1/2-y,1/2+x
43 -z,1/2+y,1/2+x
44 z,1/2+y,1/2-x
45 y,1/2-z,1/2-x
46 -z,1/2-y,1/2-x
47 -y,1/2+z,1/2-x
48 -y,1/2-z,1/2+x
49 1/2+x,y,1/2+z
50 1/2-y,x,1/2+z
51 1/2+x,-y,1/2-z
52 1/2+z,x,1/2+y
53 1/2-x,-y,1/2+z
54 1/2+y,x,1/2-z
55 1/2-x,z,1/2+y
56 1/2+y,-x,1/2+z
57 1/2-x,y,1/2-z
58 1/2-z,-x,1/2+y
59 1/2-y,-x,1/2-z
60 1/2+x,-z,1/2+y
61 1/2+z,-x,1/2-y
62 1/2-x,-z,1/2-y
63 1/2-z,x,1/2-y
64 1/2+x,z,1/2-y
65 1/2+y,z,1/2+x
66 1/2+z,-y,1/2+x
67 1/2-z,y,1/2+x
68 1/2+z,y,1/2-x
69 1/2+y,-z,1/2-x
70 1/2-z,-y,1/2-x
71 1/2-y,z,1/2-x
72 1/2-y,-z,1/2+x
73 1/2+x,1/2+y,z
74 1/2-y,1/2+x,z
75 1/2+x,1/2-y,-z
76 1/2+z,1/2+x,y
77 1/2-x,1/2-y,z
78 1/2+y,1/2+x,-z
79 1/2-x,1/2+z,y
80 1/2+y,1/2-x,z
81 1/2-x,1/2+y,-z
82 1/2-z,1/2-x,y
83 1/2-y,1/2-x,-z
84 1/2+x,1/2-z,y
85 1/2+z,1/2-x,-y
86 1/2-x,1/2-z,-y
87 1/2-z,1/2+x,-y
88 1/2+x,1/2+z,-y
89 1/2+y,1/2+z,x
90 1/2+z,1/2-y,x
91 1/2-z,1/2+y,x
92 1/2+z,1/2+y,-x
93 1/2+y,1/2-z,-x
94 1/2-z,1/2-y,-x
95 1/2-y,1/2+z,-x
96 1/2-y,1/2-z,x
97 -x,-y,-z
98 y,-x,-z
99 -x,y,z
100 -z,-x,-y
101 x,y,-z
102 -y,-x,z
103 x,-z,-y
104 -y,x,-z
105 x,-y,z
106 z,x,-y
107 y,x,z
108 -x,z,-y
109 -z,x,y
110 x,z,y
111 z,-x,y
112 -x,-z,y
113 -y,-z,-x
114 -z,y,-x
115 z,-y,-x
116 -z,-y,x
117 -y,z,x
118 z,y,x
119 y,-z,x
120 y,z,-x
121 -x,1/2-y,1/2-z
122 y,1/2-x,1/2-z
123 -x,1/2+y,1/2+z
124 -z,1/2-x,1/2-y
125 x,1/2+y,1/2-z
126 -y,1/2-x,1/2+z
127 x,1/2-z,1/2-y
128 -y,1/2+x,1/2-z
129 x,1/2-y,1/2+z
130 z,1/2+x,1/2-y
131 y,1/2+x,1/2+z
132 -x,1/2+z,1/2-y
133 -z,1/2+x,1/2+y
134 x,1/2+z,1/2+y
135 z,1/2-x,1/2+y
136 -x,1/2-z,1/2+y
137 -y,1/2-z,1/2-x
138 -z,1/2+y,1/2-x
139 z,1/2-y,1/2-x
140 -z,1/2-y,1/2+x
141 -y,1/2+z,1/2+x
142 z,1/2+y,1/2+x
143 y,1/2-z,1/2+x
144 y,1/2+z,1/2-x
145 1/2-x,-y,1/2-z
146 1/2+y,-x,1/2-z
147 1/2-x,y,1/2+z
148 1/2-z,-x,1/2-y
149 1/2+x,y,1/2-z
150 1/2-y,-x,1/2+z
151 1/2+x,-z,1/2-y
152 1/2-y,x,1/2-z
153 1/2+x,-y,1/2+z
154 1/2+z,x,1/2-y
155 1/2+y,x,1/2+z
156 1/2-x,z,1/2-y
157 1/2-z,x,1/2+y
158 1/2+x,z,1/2+y
159 1/2+z,-x,1/2+y
160 1/2-x,-z,1/2+y
161 1/2-y,-z,1/2-x
162 1/2-z,y,1/2-x
163 1/2+z,-y,1/2-x
164 1/2-z,-y,1/2+x
165 1/2-y,z,1/2+x
166 1/2+z,y,1/2+x
167 1/2+y,-z,1/2+x
168 1/2+y,z,1/2-x
169 1/2-x,1/2-y,-z
170 1/2+y,1/2-x,-z
171 1/2-x,1/2+y,z
172 1/2-z,1/2-x,-y
173 1/2+x,1/2+y,-z
174 1/2-y,1/2-x,z
175 1/2+x,1/2-z,-y
176 1/2-y,1/2+x,-z
177 1/2+x,1/2-y,z
178 1/2+z,1/2+x,-y
179 1/2+y,1/2+x,z
180 1/2-x,1/2+z,-y
181 1/2-z,1/2+x,y
182 1/2+x,1/2+z,y
183 1/2+z,1/2-x,y
184 1/2-x,1/2-z,y
185 1/2-y,1/2-z,-x
186 1/2-z,1/2+y,-x
187 1/2+z,1/2-y,-x
188 1/2-z,1/2-y,x
189 1/2-y,1/2+z,x
190 1/2+z,1/2+y,x
191 1/2+y,1/2-z,x
192 1/2+y,1/2+z,-x
_cell_length_a                   25.765(5)
_cell_length_b                   25.765(5)
_cell_length_c                   25.765(5)
_cell_angle_alpha                90
_cell_angle_beta                 90
_cell_angle_gamma                90
_cell_volume                     17103.7
_cell_formula_units_Z            8
loop_
_atom_site_label
_atom_site_type_symbol
_atom_site_fract_x
_atom_site_fract_y
_atom_site_fract_z
Zn1 Zn 0.20656(4) 0.20656(4) 0.20656(4)
O1 O 0.2500 0.2500 0.2500
O2 O 0.2185(3) 0.1342(3) 0.2185(3)
C1 C 0.2500 0.1109(6) 0.2500
C2 C 0.2500 0.05191(9) 0.2500
C3 C 0.2288(3) 0.02909(18) 0.20600(16)
C4 C 0.1975(5) 0.02378(17) 0.2349(3)
C5 C 0.2382(4) 0.05439(3) 0.2621(4)
C6 C 0.2835(4) 0.03103(18) 0.2833(3)
C7 C 0.2772(3) 0.02185(18) 0.2855(2)
O3 O 0.2022(5) 0.0586(3) 0.1712(3)
C8 C 0.2230(10) 0.0451(10) 0.1210(5)
Zn1DB Zn 0.29344(4) 0.20656(4) 0.29344(4)
Zn1G Zn 0.20656(4) -0.20656(4) 0.20656(4)
Zn1FB Zn 0.29344(4) -0.20656(4) 0.29344(4)
Zn1Z Zn 0.20656(4) 0.29344(4) 0.29344(4)
Zn1XB Zn 0.29344(4) 0.29344(4) 0.20656(4)
Zn1E Zn 0.20656(4) 0.20656(4) -0.20656(4)
Zn1DC Zn 0.29344(4) 0.29344(4) -0.20656(4)
Zn1A Zn -0.20656(4) 0.20656(4) 0.20656(4)
Zn1HA Zn -0.20656(4) 0.29344(4) 0.29344(4)
O1G O 0.2500 -0.2500 0.2500
O2DB O 0.2815(3) 0.1342(3) 0.2815(3)
O2Q O 0.2185(3) -0.1342(3) 0.2185(3)
O2QB O 0.2815(3) -0.1342(3) 0.2815(3)
O2C O 0.2185(3) 0.2185(3) 0.1342(3)
O2CC O 0.2815(3) 0.2815(3) 0.1342(3)
O2O O 0.2185(3) 0.2185(3) -0.1342(3)
O2GC O 0.2815(3) 0.2815(3) -0.1342(3)
O2P O 0.1342(3) 0.2185(3) 0.2185(3)
O2RA O 0.1342(3) 0.2815(3) 0.2815(3)
O2A O -0.1342(3) 0.2185(3) 0.2185(3)
O2HA O -0.1342(3) 0.2815(3) 0.2815(3)
O2JB O 0.2815(3) 0.2185(3) 0.3658(3)
O2RB O 0.3658(3) 0.2185(3) 0.2815(3)
O2G O 0.1342(3) -0.2185(3) 0.2185(3)
O2K O 0.2185(3) -0.2185(3) 0.1342(3)
O2FB O 0.3658(3) -0.2185(3) 0.2815(3)
O2IB O 0.2815(3) -0.2185(3) 0.3658(3)
C1Q C 0.2500 -0.1109(6) 0.2500
C1C C 0.2500 0.2500 0.1109(6)
C1O C 0.2500 0.2500 -0.1109(6)
C1P C 0.1109(6) 0.2500 0.2500
C1A C -0.1109(6) 0.2500 0.2500
C2Q C 0.2500 -0.05191(9) 0.2500
C2C C 0.2500 0.2500 0.05191(9)
C2O C 0.2500 0.2500 -0.05191(9)
C2P C 0.05191(9) 0.2500 0.2500
C2A C -0.05191(9) 0.2500 0.2500
C3Q C 0.20600(16) -0.02909(18) 0.2288(3)
C3QB C 0.29400(16) -0.02909(18) 0.2712(3)
C3DB C 0.2712(3) 0.02909(18) 0.29400(16)
C3MD C 0.20600(16) 0.02909(18) 0.2288(3)
C3ZC C 0.2288(3) -0.02909(18) 0.20600(16)
C3NE C 0.2712(3) -0.02909(18) 0.29400(16)
C3EF C 0.29400(16) 0.02909(18) 0.2712(3)
C3C C 0.20600(16) 0.2288(3) 0.02909(18)
C3O C 0.2288(3) 0.20600(16) -0.02909(18)
C3GC C 0.2712(3) 0.29400(16) -0.02909(18)
C3CC C 0.29400(16) 0.2712(3) 0.02909(18)
C3ED C 0.2288(3) 0.20600(16) 0.02909(18)
C3AD C 0.20600(16) 0.2288(3) -0.02909(18)
C3OF C 0.29400(16) 0.2712(3) -0.02909(18)
C3AG C 0.2712(3) 0.29400(16) 0.02909(18)
C3P C 0.02909(18) 0.20600(16) 0.2288(3)
C3A C -0.02909(18) 0.2288(3) 0.20600(16)
C3HA C -0.02909(18) 0.2712(3) 0.29400(16)
C3RA C 0.02909(18) 0.29400(16) 0.2712(3)
C3BD C 0.02909(18) 0.2288(3) 0.20600(16)
C3LD C -0.02909(18) 0.20600(16) 0.2288(3)
C3FE C -0.02909(18) 0.29400(16) 0.2712(3)
C3QD C 0.02909(18) 0.2712(3) 0.29400(16)
C4Q C 0.2349(3) -0.02378(17) 0.1975(5)
C4QB C 0.2651(3) -0.02378(17) 0.3025(5)
C4DB C 0.3025(5) 0.02378(17) 0.2651(3)
C4MD C 0.2349(3) 0.02378(17) 0.1975(5)
C4ZC C 0.1975(5) -0.02378(17) 0.2349(3)
C4NE C 0.3025(5) -0.02378(17) 0.2651(3)
C4EF C 0.2651(3) 0.02378(17) 0.3025(5)
C4C C 0.2349(3) 0.1975(5) 0.02378(17)
C4O C 0.1975(5) 0.2349(3) -0.02378(17)
C4GC C 0.3025(5) 0.2651(3) -0.02378(17)
C4CC C 0.2651(3) 0.3025(5) 0.02378(17)
C4ED C 0.1975(5) 0.2349(3) 0.02378(17)
C4AD C 0.2349(3) 0.1975(5) -0.02378(17)
C4OF C 0.2651(3) 0.3025(5) -0.02378(17)
C4AG C 0.3025(5) 0.2651(3) 0.02378(17)
C4P C 0.02378(17) 0.2349(3) 0.1975(5)
C4A C -0.02378(17) 0.1975(5) 0.2349(3)
C4HA C -0.02378(17) 0.3025(5) 0.2651(3)
C4RA C 0.02378(17) 0.2651(3) 0.3025(5)
C4BD C 0.02378(17) 0.1975(5) 0.2349(3)
C4LD C -0.02378(17) 0.2349(3) 0.1975(5)
C4FE C -0.02378(17) 0.2651(3) 0.3025(5)
C4QD C 0.02378(17) 0.3025(5) 0.2651(3)
C5Q C 0.2621(4) -0.05439(3) 0.2382(4)
C5DB C 0.2618(4) 0.05439(3) 0.2379(4)
C5ZC C 0.2382(4) -0.05439(3) 0.2621(4)
C5C C 0.2621(4) 0.2382(4) 0.05439(3)
C5O C 0.2382(4) 0.2621(4) -0.05439(3)
C5CC C 0.2379(4) 0.2618(4) 0.05439(3)
C5AD C 0.2621(4) 0.2382(4) -0.05439(3)
C5P C 0.05439(3) 0.2621(4) 0.2382(4)
C5A C -0.05439(3) 0.2382(4) 0.2621(4)
C5RA C 0.05439(3) 0.2379(4) 0.2618(4)
C5LD C -0.05439(3) 0.2621(4) 0.2382(4)
C6Q C 0.2833(3) -0.03103(18) 0.2835(4)
C6DB C 0.2165(4) 0.03103(18) 0.2167(3)
C6QB C 0.2167(3) -0.03103(18) 0.2165(4)
C6C C 0.2833(3) 0.2835(4) 0.03103(18)
C6O C 0.2835(4) 0.2833(3) -0.03103(18)
C6CC C 0.2167(3) 0.2165(4) 0.03103(18)
C6GC C 0.2165(4) 0.2167(3) -0.03103(18)
C6P C 0.03103(18) 0.2833(3) 0.2835(4)
C6A C -0.03103(18) 0.2835(4) 0.2833(3)
C6RA C 0.03103(18) 0.2167(3) 0.2165(4)
C6HA C -0.03103(18) 0.2165(4) 0.2167(3)
C7Q C 0.2855(2) -0.02185(18) 0.2772(3)
C7MD C 0.2855(2) 0.02185(18) 0.2772(3)
C7DB C 0.2228(3) 0.02185(18) 0.2145(2)
C7QB C 0.2145(2) -0.02185(18) 0.2228(3)
C7ZC C 0.2772(3) -0.02185(18) 0.2855(2)
C7NE C 0.2228(3) -0.02185(18) 0.2145(2)
C7EF C 0.2145(2) 0.02185(18) 0.2228(3)
C7C C 0.2855(2) 0.2772(3) 0.02185(18)
C7O C 0.2772(3) 0.2855(2) -0.02185(18)
C7ED C 0.2772(3) 0.2855(2) 0.02185(18)
C7CC C 0.2145(2) 0.2228(3) 0.02185(18)
C7GC C 0.2228(3) 0.2145(2) -0.02185(18)
C7AD C 0.2855(2) 0.2772(3) -0.02185(18)
C7OF C 0.2145(2) 0.2228(3) -0.02185(18)
C7AG C 0.2228(3) 0.2145(2) 0.02185(18)
C7P C 0.02185(18) 0.2855(2) 0.2772(3)
C7A C -0.02185(18) 0.2772(3) 0.2855(2)
C7BD C 0.02185(18) 0.2772(3) 0.2855(2)
C7RA C 0.02185(18) 0.2145(2) 0.2228(3)
C7HA C -0.02185(18) 0.2228(3) 0.2145(2)
C7LD C -0.02185(18) 0.2855(2) 0.2772(3)
C7FE C -0.02185(18) 0.2145(2) 0.2228(3)
C7QD C 0.02185(18) 0.2228(3) 0.2145(2)
O3ZC O 0.2022(5) -0.0586(3) 0.1712(3)
O3Q O 0.1712(3) -0.0586(3) 0.2022(5)
O3MD O 0.1712(3) 0.0586(3) 0.2022(5)
O3DB O 0.2978(5) 0.0586(3) 0.3288(3)
O3EF O 0.3288(3) 0.0586(3) 0.2978(5)
O3NE O 0.2978(5) -0.0586(3) 0.3288(3)
O3QB O 0.3288(3) -0.0586(3) 0.2978(5)
O3C O 0.1712(3) 0.2022(5) 0.0586(3)
O3AD O 0.1712(3) 0.2022(5) -0.0586(3)
O3O O 0.2022(5) 0.1712(3) -0.0586(3)
O3ED O 0.2022(5) 0.1712(3) 0.0586(3)
O3CC O 0.3288(3) 0.2978(5) 0.0586(3)
O3AG O 0.2978(5) 0.3288(3) 0.0586(3)
O3OF O 0.3288(3) 0.2978(5) -0.0586(3)
O3GC O 0.2978(5) 0.3288(3) -0.0586(3)
O3P O 0.0586(3) 0.1712(3) 0.2022(5)
O3LD O -0.0586(3) 0.1712(3) 0.2022(5)
O3A O -0.0586(3) 0.2022(5) 0.1712(3)
O3BD O 0.0586(3) 0.2022(5) 0.1712(3)
O3RA O 0.0586(3) 0.3288(3) 0.2978(5)
O3QD O 0.0586(3) 0.2978(5) 0.3288(3)
O3FE O -0.0586(3) 0.3288(3) 0.2978(5)
O3HA O -0.0586(3) 0.2978(5) 0.3288(3)
C8MD C 0.1210(5) 0.0451(10) 0.2230(10)
C8Q C 0.1210(5) -0.0451(10) 0.2230(10)
C8ZC C 0.2230(10) -0.0451(10) 0.1210(5)
C8DB C 0.2770(10) 0.0451(10) 0.3790(5)
C8EF C 0.3790(5) 0.0451(10) 0.2770(10)
C8QB C 0.3790(5) -0.0451(10) 0.2770(10)
C8NE C 0.2770(10) -0.0451(10) 0.3790(5)
C8C C 0.1210(5) 0.2230(10) 0.0451(10)
C8ED C 0.2230(10) 0.1210(5) 0.0451(10)
C8O C 0.2230(10) 0.1210(5) -0.0451(10)
C8AD C 0.1210(5) 0.2230(10) -0.0451(10)
C8CC C 0.3790(5) 0.2770(10) 0.0451(10)
C8AG C 0.2770(10) 0.3790(5) 0.0451(10)
C8GC C 0.2770(10) 0.3790(5) -0.0451(10)
C8OF C 0.3790(5) 0.2770(10) -0.0451(10)
C8P C 0.0451(10) 0.1210(5) 0.2230(10)
C8BD C 0.0451(10) 0.2230(10) 0.1210(5)
C8A C -0.0451(10) 0.2230(10) 0.1210(5)
C8LD C -0.0451(10) 0.1210(5) 0.2230(10)
C8RA C 0.0451(10) 0.3790(5) 0.2770(10)
C8QD C 0.0451(10) 0.2770(10) 0.3790(5)
C8HA C -0.0451(10) 0.2770(10) 0.3790(5)
C8FE C -0.0451(10) 0.3790(5) 0.2770(10)
O4? O 0.2143(8) -0.0462(3) 0.1544(4)
O5? O 0.3100(6) -0.0604(3) 0.3103(5)
O6? O 0.2979(5) 0.0442(3) 0.3286(3)
F1? F 0.2017(10) 0.0695(10) 0.0813(5)
F2? F 0.2732(10) 0.0554(10) 0.1224(5)
F3? F 0.2161(10) -0.0054(10) 0.1158(5)
C9? C 0.1962(12) -0.0104(8) 0.1160(7)
F4? F 0.1727(12) -0.0372(8) 0.0792(7)
F5? F 0.1627(12) 0.0220(8) 0.1375(7)
F6? F 0.2350(12) 0.0162(8) 0.0957(7)
C10? C 0.3653(6) -0.0552(10) 0.3123(11)
F7? F 0.3868(6) -0.0795(10) 0.3468(11)
F8? F 0.3870(6) -0.0711(10) 0.2687(11)
F9? F 0.3722(6) -0.0004(10) 0.3175(11)
C11? C 0.3163(11) 0.0084(8) 0.3666(7)
F10? F 0.3398(11) 0.0351(8) 0.4034(7)
F11? F 0.2776(11) -0.0183(8) 0.3870(7)
F12? F 0.3496(11) -0.0238(8) 0.3500(7)

#END
