####################################################################### 
# 
# This file contains crystal structure data downloaded from the 
# Cambridge Structural Database (CSD) hosted by the Cambridge 
# Crystallographic Data Centre (CCDC).
# 
# Full information about CCDC data access policies and citation 
# guidelines are available at http://www.ccdc.cam.ac.uk/access/V1 
# 
# Audit and citation data items may have been added by the CCDC. 
# Please retain this information to preserve the provenance of 
# this file and to allow appropriate attribution of the data. 
# 
#######################################################################

data_ZIF-301
_audit_block_doi                 10.5517/cc12dlvx
_database_code_depnum_ccdc_archive 'CCDC 995219'
loop_
_citation_id
_citation_doi
_citation_year
1 10.1002/anie.201403980 2014
_audit_update_record             
;
2014-04-03 deposited with the CCDC.	2021-12-15 downloaded from the CCDC.
;
_audit_creation_date             2014-02-28
_audit_creation_method           
;
Olex2 1.2
(compiled 2014.02.17 svn.r2891 for OlexSys, GUI svn.r4777)
;
_shelxl_version_number           2013-4
_chemical_name_common            ?
_chemical_name_systematic        ZIF-301
_chemical_formula_moiety         
'C360 H216 Cl20.25 N144 Zn36, 2.25(Cl), 4.5(O), 36(C Cl0.25)'
_chemical_formula_sum            'C396 H216 Cl31.50 N144 O4.50 Zn36'
_chemical_formula_weight         10533.11
_chemical_melting_point          ?
loop_
_atom_type_symbol
_atom_type_description
_atom_type_scat_dispersion_real
_atom_type_scat_dispersion_imag
_atom_type_scat_source
C C 0.0040 0.0020 'International Tables Vol C Tables 4.2.6.8 and 6.1.1.4'
H H 0.0000 0.0000 'International Tables Vol C Tables 4.2.6.8 and 6.1.1.4'
Cl Cl 0.1690 0.1900 'International Tables Vol C Tables 4.2.6.8 and 6.1.1.4'
N N 0.0080 0.0040 'International Tables Vol C Tables 4.2.6.8 and 6.1.1.4'
O O 0.0140 0.0070 'International Tables Vol C Tables 4.2.6.8 and 6.1.1.4'
Zn Zn 0.2500 1.7070 'International Tables Vol C Tables 4.2.6.8 and 6.1.1.4'

_shelx_space_group_comment       
;
The symmetry employed for this shelxl refinement is uniquely defined
by the following loop, which should always be used as a source of
symmetry information in preference to the above space-group names.
They are only intended as comments.
;
_space_group_crystal_system      trigonal
_space_group_IT_number           148
_space_group_name_H-M_alt        'R -3'
_space_group_name_Hall           '-R 3'
loop_
_space_group_symop_operation_xyz
'x, y, z'
'-y, x-y, z'
'-x+y, -x, z'
'x+2/3, y+1/3, z+1/3'
'-y+2/3, x-y+1/3, z+1/3'
'-x+y+2/3, -x+1/3, z+1/3'
'x+1/3, y+2/3, z+2/3'
'-y+1/3, x-y+2/3, z+2/3'
'-x+y+1/3, -x+2/3, z+2/3'
'-x, -y, -z'
'y, -x+y, -z'
'x-y, x, -z'
'-x+2/3, -y+1/3, -z+1/3'
'y+2/3, -x+y+1/3, -z+1/3'
'x-y+2/3, x+1/3, -z+1/3'
'-x+1/3, -y+2/3, -z+2/3'
'y+1/3, -x+y+2/3, -z+2/3'
'x-y+1/3, x+2/3, -z+2/3'

_cell_length_a                   27.590(6)
_cell_length_b                   27.590(6)
_cell_length_c                   21.891(4)
_cell_angle_alpha                90
_cell_angle_beta                 90
_cell_angle_gamma                120
_cell_volume                     14431(6)
_cell_formula_units_Z            1
_cell_measurement_reflns_used    6538
_cell_measurement_temperature    100
_cell_measurement_theta_max      28.78
_cell_measurement_theta_min      2.66
_shelx_estimated_absorpt_T_max   ?
_shelx_estimated_absorpt_T_min   ?
_exptl_absorpt_coefficient_mu    2.096
_exptl_absorpt_correction_T_max  1.0000
_exptl_absorpt_correction_T_min  0.7763
_exptl_absorpt_correction_type   multi-scan
_exptl_absorpt_process_details   
;
SADABS-2012/1 (Bruker,2012) was used for absorption correction.
wR2(int) was 0.1582 before and 0.0623 after correction.
The Ratio of minimum to maximum transmission is 0.7763.
The \l/2 correction factor is 0.0000.
;
_exptl_crystal_colour            colourless
_exptl_crystal_colour_primary    colourless
_exptl_crystal_density_diffrn    1.212
_exptl_crystal_density_meas      ?
_exptl_crystal_density_method    ?
_exptl_crystal_description       ?
_exptl_crystal_F_000             5252
_exptl_crystal_recrystallization_method ?
_exptl_crystal_size_max          0.1
_exptl_crystal_size_mid          0.06
_exptl_crystal_size_min          0.04
_exptl_special_details           
;
 ?
;
_exptl_transmission_factor_max   ?
_exptl_transmission_factor_min   ?
_diffrn_reflns_av_R_equivalents  0.0831
_diffrn_reflns_av_unetI/netI     0.0667
_diffrn_reflns_Laue_measured_fraction_full 0.919
_diffrn_reflns_Laue_measured_fraction_max 0.971
_diffrn_reflns_limit_h_max       32
_diffrn_reflns_limit_h_min       -32
_diffrn_reflns_limit_k_max       32
_diffrn_reflns_limit_k_min       -32
_diffrn_reflns_limit_l_max       25
_diffrn_reflns_limit_l_min       -25
_diffrn_reflns_number            28582
_diffrn_reflns_point_group_measured_fraction_full 0.919
_diffrn_reflns_point_group_measured_fraction_max 0.971
_diffrn_reflns_theta_full        27.706
_diffrn_reflns_theta_max         27.106
_diffrn_reflns_theta_min         2.660
_diffrn_ambient_temperature      100
_diffrn_detector                 'CCD area detector'
_diffrn_detector_area_resol_mean ?
_diffrn_detector_type            'Bruker-Nonius APEXII CCD area detector'
_diffrn_measured_fraction_theta_full 0.919
_diffrn_measured_fraction_theta_max 0.971
_diffrn_measurement_device       
'Bruker-Nonius APEXII CCD area detector and D8 diffractometer'
_diffrn_measurement_device_type  'Bruker D8 diffractometer'
_diffrn_measurement_method       'omega rotation'
_diffrn_radiation_collimation    '0.2 mm sinlge-pinhole'
_diffrn_radiation_monochromator  'Silicon 111'
_diffrn_radiation_probe          x-ray
_diffrn_radiation_type           ?
_diffrn_radiation_wavelength     0.7749
_diffrn_source                   synchrotron
_diffrn_source_type              'Bend magnet, Station 11.3.1, ALS, LBNL'
_diffrn_special_details          ?
_diffrn_standards_number         0
_reflns_Friedel_coverage         0.000
_reflns_Friedel_fraction_full    .
_reflns_Friedel_fraction_max     .
_reflns_number_gt                3512
_reflns_number_total             5321
_reflns_special_details          
;
 Reflections were merged by SHELXL according to the crystal
 class for the calculation of statistics and refinement.
 
 _reflns_Friedel_fraction is defined as the number of unique
 Friedel pairs measured divided by the number that would be
 possible theoretically, ignoring centric projections and
 systematic absences.
;
_reflns_threshold_expression     'I > 2\s(I)'
_computing_cell_refinement       ?
_computing_data_collection       ?
_computing_data_reduction        ?
_computing_molecular_graphics    'Olex2 (Dolomanov et al., 2009)'
_computing_publication_material  'Olex2 (Dolomanov et al., 2009)'
_computing_structure_refinement  'XL (Sheldrick, 2008)'
_computing_structure_solution    'SIR2004 (Burla et al., 2007)'
_refine_diff_density_max         0.889
_refine_diff_density_min         -0.617
_refine_diff_density_rms         0.111
_refine_ls_extinction_coef       .
_refine_ls_extinction_method     none
_refine_ls_goodness_of_fit_ref   1.071
_refine_ls_hydrogen_treatment    constr
_refine_ls_matrix_type           full
_refine_ls_number_parameters     409
_refine_ls_number_reflns         5321
_refine_ls_number_restraints     7
_refine_ls_R_factor_all          0.1175
_refine_ls_R_factor_gt           0.0883
_refine_ls_restrained_S_all      1.071
_refine_ls_shift/su_max          0.039
_refine_ls_shift/su_mean         0.004
_refine_ls_structure_factor_coef Fsqd
_refine_ls_weighting_details     
'w=1/[\s^2^(Fo^2^)+(0.1050P)^2^+318.9647P] where P=(Fo^2^+2Fc^2^)/3'
_refine_ls_weighting_scheme      calc
_refine_ls_wR_factor_gt          0.2710
_refine_ls_wR_factor_ref         0.2832
_refine_special_details          ?
_olex2_refinement_description    
;
1. Fixed Uiso
 At 1.2 times of:
  All C(H) groups
 At 1.5 times of:
  All C(H,H,H) groups
2. Restrained distances
 C301-C303
 1.38 with sigma of 0.02
3. Restrained planarity
 C304, C301, C303, C302, Cl31, Cl32
 with sigma of 0.1
 C201, C206, C205, C204, Cl21, Cl22
 with sigma of 0.1
4. Uiso/Uaniso restraints and constraints
Uanis(C506) = Uanis(C502) = Uanis(C501) = Uanis(C504) = Uanis(C503) =
Uanis(C505)
Uanis(Cl42) = Uanis(Cl41) = Uanis(Cl32) = Uanis(Cl31) = Uanis(Cl21) =
Uanis(Cl11) = Uanis(Cl22) = Uanis(Cl12)
Uanis(C203) = Uanis(C202) = Uanis(C404) = Uanis(C405) = Uanis(C103) =
Uanis(C201) = Uanis(C302) = Uanis(C406) = Uanis(C401) = Uanis(C303) =
Uanis(C206) = Uanis(C104) = Uanis(C102) = Uanis(C204) = Uanis(C403) =
Uanis(C304) = Uanis(C402) = Uanis(C205) = Uanis(C301) = Uanis(C101)
5. Others
 Fixed Sof: C15(0.5) C26(0.5) C27(0.5) Cl35(0.125) C505(0.5) C506(0.5)
 C58(0.5) H58(0.5) C11(0.5) H11(0.5) C12(0.5) H12(0.5) C13(0.5) C1(0.5) C9(0.5)
 H9(0.5) C2(0.5) H2A(0.5) H2B(0.5) H2C(0.5) C504(0.5) Cl3(0.125) Cl1(0.25)
 Cl2(0.25) O1(0.25) C6(0.5) H6A(0.5) H6B(0.5) H6C(0.5) C7(0.5) H7(0.5) C1A(0.5)
 H1A(0.5) C1I(0.5) C502(0.5) C503(0.5) C201(0.25) C202(0.5) C203(0.5)
 C204(0.25) C205(0.25) C206(0.25) C401(0.25) C402(0.25) C403(0.25) C404(0.5)
 C405(0.5) C406(0.25) C501(0.5) C102(0.25) C101(0.25) C103(0.25) C104(0.25)
 C304(0.25) C301(0.25) C302(0.25) Cl21(0.125) Cl22(0.125) Cl11(0.125)
 Cl42(0.125) Cl12(0.125) Cl32(0.125) Cl41(0.125) Cl31(0.125) C303(0.25)
6.a Aromatic/amide H refined with riding coordinates:
 C16(H16), C20(H20), C58(H58), C11(H11), C12(H12), C9(H9), C4(H4), C7(H7),
 C1A(H1A)
6.b Fitted hexagon refined as free rotating group:
 C201(C202,C203,C204,C205,C206), C401(C402,C403,C404,C405,C406)
6.c Idealised Me refined as rotating group:
 C2(H2A,H2B,H2C), C5(H5A,H5B,H5C), C6(H6A,H6B,H6C)
;
_atom_sites_solution_hydrogens   geom
_atom_sites_solution_primary     direct
_atom_sites_solution_secondary   ?
loop_
_atom_site_label
_atom_site_type_symbol
_atom_site_fract_x
_atom_site_fract_y
_atom_site_fract_z
_atom_site_U_iso_or_equiv
_atom_site_adp_type
_atom_site_occupancy
_atom_site_site_symmetry_order
_atom_site_calc_flag
_atom_site_refinement_flags_posn
_atom_site_refinement_flags_adp
_atom_site_refinement_flags_occupancy
_atom_site_disorder_assembly
_atom_site_disorder_group
Zn1 Zn 0.88055(4) 0.54806(5) 0.47334(6) 0.0555(4) Uani 1 1 d . . . . .
Zn2 Zn 0.66751(4) 0.54801(5) 0.47338(6) 0.0557(4) Uani 1 1 d . . . . .
N1 N 0.5988(4) 0.4822(4) 0.5061(4) 0.062(2) Uani 1 1 d . . . . .
N2 N 0.8639(3) 0.5307(3) 0.3842(4) 0.055(2) Uani 1 1 d . . . . .
N3 N 0.8831(3) 0.4822(4) 0.5062(4) 0.061(2) Uani 1 1 d . . . . .
N4 N 0.6612(3) 0.6141(3) 0.4932(4) 0.062(2) Uani 1 1 d . . . . .
N5 N 0.8178(4) 0.5537(4) 0.5069(5) 0.071(3) Uani 1 1 d . . . . .
N6 N 0.6666(3) 0.5309(3) 0.3840(4) 0.055(2) Uani 1 1 d . . . . .
N7 N 0.7357(4) 0.5531(4) 0.5071(4) 0.070(3) Uani 1 1 d . . . . .
C8 C 0.5551(4) 0.4450(4) 0.4759(5) 0.061(3) Uani 1 1 d . . . . .
N10 N 0.6138(3) 0.6604(3) 0.5063(5) 0.061(2) Uani 1 1 d . . . . .
C15 C 0.7822(19) 0.5612(17) 0.483(2) 0.049(9) Uani 0.5 1 d . . . A 1
C16 C 0.6660(4) 0.4843(4) 0.3033(5) 0.054(2) Uani 1 1 d . . . . .
H16 H 0.6648 0.4557 0.2782 0.064 Uiso 1 1 calc R . . . .
C19 C 0.6667(4) 0.5576(4) 0.3334(6) 0.063(3) Uani 1 1 d . . . . .
C20 C 0.6137(4) 0.6138(4) 0.4997(5) 0.056(3) Uani 1 1 d . . . . .
H20 H 0.5793 0.5793 0.4996 0.067 Uiso 1 1 calc R . . . .
C26 C 0.5246(9) 0.4239(8) 0.5653(10) 0.056(5) Uani 0.5 1 d . . . B 1
C27 C 0.5763(8) 0.4747(9) 0.5645(11) 0.060(5) Uani 0.5 1 d . . . B 1
Cl35 Cl 0.9028(14) 0.7051(15) 0.6867(15) 0.116(12) Uani 0.125 1 d . . . A 5
C505 C 0.7705(13) 0.5916(14) 0.5541(13) 0.096(4) Uani 0.5 1 d . . . A 5
C506 C 0.8207(13) 0.5914(14) 0.5534(13) 0.096(4) Uani 0.5 1 d . . . A 5
C58 C 0.7328(8) 0.5117(9) 0.5545(10) 0.059(5) Uani 0.5 1 d . . . A 1
H58 H 0.7016 0.4893 0.5800 0.070 Uiso 0.5 1 calc R . . A 1
C11 C 0.4938(11) 0.4040(10) 0.6178(12) 0.076(7) Uani 0.5 1 d . . . B 1
H11 H 0.4587 0.3703 0.6173 0.091 Uiso 0.5 1 calc R . . B 1
C12 C 0.5968(10) 0.5067(11) 0.6179(11) 0.074(7) Uani 0.5 1 d . . . B 1
H12 H 0.6303 0.5420 0.6180 0.089 Uiso 0.5 1 calc R . . B 1
C13 C 0.5644(10) 0.4834(10) 0.6718(10) 0.066(6) Uani 0.5 1 d . . . B 1
C1 C 0.5152(10) 0.4342(9) 0.6723(11) 0.065(6) Uani 0.5 1 d . . . B 1
C9 C 0.7786(8) 0.5120(8) 0.5544(10) 0.058(5) Uani 0.5 1 d . . . A 1
H9 H 0.7874 0.4896 0.5800 0.069 Uiso 0.5 1 calc R . . A 1
C2 C 0.7992(8) 0.5980(9) 0.4282(12) 0.068(6) Uani 0.5 1 d . . . A 1
H2A H 0.8398 0.6236 0.4293 0.101 Uiso 0.5 1 calc GR . . A 1
H2B H 0.7799 0.6196 0.4283 0.101 Uiso 0.5 1 calc GR . . A 1
H2C H 0.7894 0.5750 0.3912 0.101 Uiso 0.5 1 calc GR . . A 1
C504 C 0.7618(13) 0.6253(14) 0.6001(15) 0.096(4) Uani 0.5 1 d . . . A 5
Cl3 Cl 0.8644(15) 0.6291(16) 0.6464(15) 0.118(13) Uani 0.125 1 d . . . C 1
C4 C 0.6675(4) 0.4846(4) 0.3632(5) 0.055(2) Uani 1 1 d . . . . .
H4 H 0.6691 0.4572 0.3880 0.066 Uiso 1 1 calc R . . . .
C5 C 0.6665(7) 0.6137(6) 0.3335(7) 0.102(5) Uani 1 1 d . . . . .
H5A H 0.7031 0.6439 0.3198 0.153 Uiso 1 1 calc GR . . . .
H5B H 0.6591 0.6217 0.3749 0.153 Uiso 1 1 calc GR . . . .
H5C H 0.6374 0.6109 0.3058 0.153 Uiso 1 1 calc GR . . . .
Cl1 Cl 0.5932(6) 0.5196(8) 0.7389(7) 0.100(5) Uani 0.25 1 d . . . B 1
Cl2 Cl 0.4796(8) 0.4066(6) 0.7388(7) 0.099(5) Uani 0.25 1 d . . . B 1
O1 O 0.6667 0.3333 0.3992(17) 0.149(11) Uani 0.75 3 d S T P . .
C6 C 0.5315(8) 0.4678(8) 0.4269(12) 0.070(7) Uani 0.5 1 d . . . D 2
H6A H 0.5123 0.4854 0.4468 0.105 Uiso 0.5 1 calc GR . . D 2
H6B H 0.5050 0.4370 0.4009 0.105 Uiso 0.5 1 calc GR . . D 2
H6C H 0.5623 0.4957 0.4018 0.105 Uiso 0.5 1 calc GR . . D 2
C7 C 0.6013(11) 0.4455(13) 0.5515(11) 0.078(7) Uani 0.5 1 d . . . B 2
H7 H 0.6325 0.4544 0.5771 0.093 Uiso 0.5 1 calc R . . B 2
C1A C 0.5546(12) 0.3989(12) 0.5518(12) 0.078(7) Uani 0.5 1 d . . . B 2
H1A H 0.5457 0.3681 0.5779 0.094 Uiso 0.5 1 calc R . . B 2
C1I C 0.7713(18) 0.544(2) 0.473(3) 0.068(13) Uani 0.5 1 d . . . A 5
C502 C 0.8645(13) 0.6273(14) 0.5992(15) 0.096(4) Uani 0.5 1 d . . . A 5
C503 C 0.8023(15) 0.6555(15) 0.6378(14) 0.096(4) Uani 0.5 1 d . . . A 5
C201 C 0.7562(10) 0.7005(11) 0.4751(16) 0.088(6) Uani 0.25 1 d . . . E 4
C202 C 0.6985(10) 0.6705(8) 0.4835(13) 0.088(6) Uani 0.5 1 d G . . E 4
C203 C 0.6686(8) 0.6985(10) 0.4888(13) 0.088(6) Uani 0.5 1 d G . . E 4
C204 C 0.6964(11) 0.7566(10) 0.4859(16) 0.088(6) Uani 0.25 1 d G . . E 4
C205 C 0.7540(11) 0.7867(8) 0.4775(16) 0.088(6) Uani 0.25 1 d G . . E 4
C206 C 0.7839(8) 0.7586(10) 0.4722(16) 0.088(6) Uani 0.25 1 d G . . E 4
C401 C 0.7790(10) 0.7440(12) 0.5615(18) 0.088(6) Uani 0.25 1 d . . . E 3
C402 C 0.7512(11) 0.7742(10) 0.5651(19) 0.088(6) Uani 0.25 1 d G . . E 3
C403 C 0.6969(11) 0.7514(11) 0.5429(17) 0.088(6) Uani 0.25 1 d G . . E 3
C404 C 0.6704(9) 0.6982(11) 0.5171(14) 0.088(6) Uani 0.5 1 d G . . E 3
C405 C 0.6982(10) 0.6680(9) 0.5134(14) 0.088(6) Uani 0.5 1 d G . . E 3
C406 C 0.7525(10) 0.6908(11) 0.5357(16) 0.088(6) Uani 0.25 1 d G . . E 3
C501 C 0.8525(14) 0.6569(15) 0.6366(14) 0.096(4) Uani 0.5 1 d . . . A 5
C102 C 0.692(2) 0.752(2) 0.462(3) 0.088(6) Uani 0.25 1 d . . . F 6
C101 C 0.7379(19) 0.7842(19) 0.427(3) 0.088(6) Uani 0.25 1 d . . . F 6
C103 C 0.749(2) 0.691(2) 0.456(3) 0.088(6) Uani 0.25 1 d . . . F 6
C104 C 0.7753(19) 0.751(2) 0.438(3) 0.088(6) Uani 0.25 1 d . . . F 6
C304 C 0.698(2) 0.756(2) 0.519(3) 0.088(6) Uani 0.25 1 d . . . G 7
C301 C 0.7630(18) 0.7841(17) 0.5275(18) 0.088(6) Uani 0.25 1 d D . . G 7
C302 C 0.758(2) 0.699(2) 0.510(3) 0.088(6) Uani 0.25 1 d . . . G 7
Cl21 Cl 0.7925(15) 0.8552(15) 0.474(3) 0.168(11) Uani 0.125 1 d . . . E 4
Cl22 Cl 0.8533(15) 0.7969(15) 0.460(3) 0.168(11) Uani 0.125 1 d . . . E 4
Cl11 Cl 0.8411(15) 0.7829(16) 0.404(3) 0.168(11) Uani 0.125 1 d . . . F 6
Cl42 Cl 0.8499(16) 0.7859(16) 0.581(3) 0.168(11) Uani 0.125 1 d . . . E 3
Cl12 Cl 0.7851(15) 0.8497(15) 0.418(3) 0.168(11) Uani 0.125 1 d . . . F 6
Cl32 Cl 0.8562(16) 0.7907(15) 0.531(3) 0.168(11) Uani 0.125 1 d . . . G 7
Cl41 Cl 0.7805(17) 0.8403(15) 0.598(3) 0.168(11) Uani 0.125 1 d . . . E 3
Cl31 Cl 0.7966(15) 0.8534(15) 0.547(3) 0.168(11) Uani 0.125 1 d . . . G 7
C303 C 0.7894(18) 0.7535(17) 0.521(2) 0.088(6) Uani 0.25 1 d D . . G 7

loop_
_atom_site_aniso_label
_atom_site_aniso_U_11
_atom_site_aniso_U_22
_atom_site_aniso_U_33
_atom_site_aniso_U_23
_atom_site_aniso_U_13
_atom_site_aniso_U_12
Zn1 0.0302(5) 0.0507(7) 0.0865(9) -0.0093(6) -0.0098(5) 0.0210(5)
Zn2 0.0388(6) 0.0503(7) 0.0872(9) -0.0094(6) 0.0006(5) 0.0292(5)
N1 0.054(5) 0.057(5) 0.079(6) -0.002(4) 0.005(5) 0.031(4)
N2 0.034(4) 0.049(4) 0.080(6) 0.008(4) 0.006(4) 0.020(4)
N3 0.048(5) 0.055(5) 0.076(6) -0.003(4) -0.009(4) 0.023(4)
N4 0.051(5) 0.045(4) 0.097(7) -0.003(4) 0.007(4) 0.029(4)
N5 0.043(5) 0.106(8) 0.082(7) -0.022(6) -0.020(5) 0.051(5)
N6 0.040(4) 0.046(4) 0.084(6) 0.008(4) 0.004(4) 0.026(4)
N7 0.054(5) 0.105(7) 0.079(6) -0.021(6) -0.001(5) 0.059(5)
C8 0.045(5) 0.048(6) 0.078(8) 0.003(5) -0.001(5) 0.014(5)
N10 0.046(4) 0.047(5) 0.099(7) -0.007(4) 0.006(4) 0.029(4)
C15 0.037(19) 0.05(2) 0.048(17) -0.030(14) -0.013(13) 0.014(15)
C16 0.041(5) 0.039(5) 0.077(8) -0.001(5) 0.005(5) 0.017(4)
C19 0.037(5) 0.056(6) 0.092(9) 0.002(6) 0.003(5) 0.020(5)
C20 0.037(5) 0.040(5) 0.093(8) -0.002(5) 0.002(5) 0.020(4)
C26 0.063(12) 0.043(10) 0.076(15) 0.014(10) 0.011(11) 0.037(10)
C27 0.050(11) 0.064(13) 0.081(16) -0.014(11) -0.018(11) 0.038(10)
Cl35 0.09(2) 0.14(3) 0.09(2) -0.08(2) -0.078(18) 0.039(19)
C505 0.095(8) 0.118(10) 0.082(8) -0.036(7) -0.019(7) 0.059(8)
C506 0.095(8) 0.118(10) 0.082(8) -0.036(7) -0.019(7) 0.059(8)
C58 0.047(11) 0.060(12) 0.070(14) -0.001(10) 0.006(10) 0.027(10)
C11 0.096(18) 0.064(14) 0.090(18) 0.010(13) 0.022(15) 0.056(14)
C12 0.063(13) 0.090(17) 0.090(18) -0.034(14) -0.015(13) 0.054(13)
C13 0.083(16) 0.082(16) 0.061(14) -0.010(11) -0.003(12) 0.062(14)
C1 0.068(14) 0.055(12) 0.080(16) 0.000(11) 0.009(11) 0.038(11)
C9 0.050(11) 0.051(11) 0.071(14) -0.002(10) -0.008(10) 0.025(9)
C2 0.042(10) 0.054(12) 0.112(19) 0.009(12) 0.005(11) 0.028(9)
C504 0.095(8) 0.118(10) 0.082(8) -0.036(7) -0.019(7) 0.059(8)
Cl3 0.14(3) 0.15(3) 0.09(2) -0.10(2) -0.022(18) 0.10(2)
C4 0.039(5) 0.048(5) 0.079(8) 0.003(5) 0.005(5) 0.022(4)
C5 0.150(14) 0.071(8) 0.109(11) -0.004(8) -0.006(10) 0.073(10)
Cl1 0.096(10) 0.147(14) 0.083(9) -0.029(9) -0.013(7) 0.079(10)
Cl2 0.143(13) 0.097(10) 0.086(9) 0.010(7) 0.028(9) 0.081(10)
O1 0.124(14) 0.124(14) 0.20(3) 0.000 0.000 0.062(7)
C6 0.032(9) 0.035(10) 0.14(2) -0.002(11) 0.000(11) 0.011(8)
C7 0.076(16) 0.11(2) 0.064(16) 0.003(14) 0.006(12) 0.063(17)
C1A 0.10(2) 0.077(17) 0.074(17) -0.011(13) 0.004(14) 0.059(17)
C1I 0.026(16) 0.08(3) 0.11(3) -0.04(2) -0.032(15) 0.03(2)
C502 0.095(8) 0.118(10) 0.082(8) -0.036(7) -0.019(7) 0.059(8)
C503 0.095(8) 0.118(10) 0.082(8) -0.036(7) -0.019(7) 0.059(8)
C201 0.051(4) 0.053(4) 0.150(19) -0.023(8) 0.019(8) 0.019(3)
C202 0.051(4) 0.053(4) 0.150(19) -0.023(8) 0.019(8) 0.019(3)
C203 0.051(4) 0.053(4) 0.150(19) -0.023(8) 0.019(8) 0.019(3)
C204 0.051(4) 0.053(4) 0.150(19) -0.023(8) 0.019(8) 0.019(3)
C205 0.051(4) 0.053(4) 0.150(19) -0.023(8) 0.019(8) 0.019(3)
C206 0.051(4) 0.053(4) 0.150(19) -0.023(8) 0.019(8) 0.019(3)
C401 0.051(4) 0.053(4) 0.150(19) -0.023(8) 0.019(8) 0.019(3)
C402 0.051(4) 0.053(4) 0.150(19) -0.023(8) 0.019(8) 0.019(3)
C403 0.051(4) 0.053(4) 0.150(19) -0.023(8) 0.019(8) 0.019(3)
C404 0.051(4) 0.053(4) 0.150(19) -0.023(8) 0.019(8) 0.019(3)
C405 0.051(4) 0.053(4) 0.150(19) -0.023(8) 0.019(8) 0.019(3)
C406 0.051(4) 0.053(4) 0.150(19) -0.023(8) 0.019(8) 0.019(3)
C501 0.095(8) 0.118(10) 0.082(8) -0.036(7) -0.019(7) 0.059(8)
C102 0.051(4) 0.053(4) 0.150(19) -0.023(8) 0.019(8) 0.019(3)
C101 0.051(4) 0.053(4) 0.150(19) -0.023(8) 0.019(8) 0.019(3)
C103 0.051(4) 0.053(4) 0.150(19) -0.023(8) 0.019(8) 0.019(3)
C104 0.051(4) 0.053(4) 0.150(19) -0.023(8) 0.019(8) 0.019(3)
C304 0.051(4) 0.053(4) 0.150(19) -0.023(8) 0.019(8) 0.019(3)
C301 0.051(4) 0.053(4) 0.150(19) -0.023(8) 0.019(8) 0.019(3)
C302 0.051(4) 0.053(4) 0.150(19) -0.023(8) 0.019(8) 0.019(3)
Cl21 0.076(7) 0.076(7) 0.30(3) -0.049(15) 0.041(14) -0.002(5)
Cl22 0.076(7) 0.076(7) 0.30(3) -0.049(15) 0.041(14) -0.002(5)
Cl11 0.076(7) 0.076(7) 0.30(3) -0.049(15) 0.041(14) -0.002(5)
Cl42 0.076(7) 0.076(7) 0.30(3) -0.049(15) 0.041(14) -0.002(5)
Cl12 0.076(7) 0.076(7) 0.30(3) -0.049(15) 0.041(14) -0.002(5)
Cl32 0.076(7) 0.076(7) 0.30(3) -0.049(15) 0.041(14) -0.002(5)
Cl41 0.076(7) 0.076(7) 0.30(3) -0.049(15) 0.041(14) -0.002(5)
Cl31 0.076(7) 0.076(7) 0.30(3) -0.049(15) 0.041(14) -0.002(5)
C303 0.051(4) 0.053(4) 0.150(19) -0.023(8) 0.019(8) 0.019(3)

_geom_special_details            
;
 All esds (except the esd in the dihedral angle between two l.s. planes)
 are estimated using the full covariance matrix.  The cell esds are taken
 into account individually in the estimation of esds in distances, angles
 and torsion angles; correlations between esds in cell parameters are only
 used when they are defined by crystal symmetry.  An approximate (isotropic)
 treatment of cell esds is used for estimating esds involving l.s. planes.
;
loop_
_geom_bond_atom_site_label_1
_geom_bond_atom_site_label_2
_geom_bond_distance
_geom_bond_site_symmetry_2
_geom_bond_publ_flag
Zn1 N2 2.007(9) . ?
Zn1 N3 1.989(9) . ?
Zn1 N5 1.956(8) . ?
Zn1 N10 1.971(8) 12_656 ?
Zn2 N1 1.990(9) . ?
Zn2 N4 1.965(8) . ?
Zn2 N6 2.009(9) . ?
Zn2 N7 1.960(8) . ?
N1 C8 1.308(13) . ?
N1 C27 1.39(2) . ?
N1 C7 1.44(3) . ?
N2 C16 1.348(12) 17 ?
N2 C19 1.341(14) 17 ?
N3 C8 1.314(13) 3_665 ?
N3 C26 1.41(2) 3_665 ?
N3 C1A 1.44(3) 3_665 ?
N4 C20 1.313(12) . ?
N4 C202 1.39(2) . ?
N4 C405 1.39(2) . ?
N5 C15 1.23(5) . ?
N5 C506 1.43(3) . ?
N5 C9 1.53(2) . ?
N5 C1I 1.39(5) . ?
N6 C19 1.330(14) . ?
N6 C4 1.370(12) . ?
N7 C15 1.30(5) . ?
N7 C505 1.45(3) . ?
N7 C58 1.51(2) . ?
N7 C1I 1.34(5) . ?
C8 N3 1.314(13) 2_655 ?
C8 C6 1.54(3) . ?
N10 Zn1 1.971(8) 11_566 ?
N10 C20 1.294(12) . ?
N10 C203 1.39(2) . ?
N10 C404 1.40(2) . ?
C15 C2 1.48(6) . ?
C16 N2 1.348(12) 18_545 ?
C16 C4 1.310(14) . ?
C19 N2 1.341(14) 18_545 ?
C19 C5 1.548(15) . ?
C26 N3 1.41(2) 2_655 ?
C26 C27 1.41(3) . ?
C26 C11 1.37(3) . ?
C27 C12 1.40(3) . ?
Cl35 C504 1.02(4) 13_666 ?
Cl35 C503 0.96(4) 13_666 ?
Cl35 C501 1.75(4) . ?
Cl35 C501 2.17(5) 13_666 ?
C505 C506 1.39(4) . ?
C505 C504 1.47(4) . ?
C506 C502 1.50(4) . ?
C58 C9 1.26(3) . ?
C11 C1 1.41(3) . ?
C12 C13 1.42(3) . ?
C13 C1 1.36(3) . ?
C13 Cl1 1.73(3) . ?
C1 Cl2 1.71(3) . ?
C504 Cl35 1.02(4) 13_666 ?
C504 C503 1.30(4) . ?
C7 C1A 1.29(4) . ?
C1A N3 1.44(3) 2_655 ?
C502 C501 1.31(4) . ?
C503 Cl35 0.96(4) 13_666 ?
C503 C503 1.97(7) 13_666 ?
C503 C501 1.37(4) . ?
C503 C501 1.39(4) 13_666 ?
C201 C202 1.3900 . ?
C201 C206 1.3900 . ?
C202 C203 1.3900 . ?
C203 C204 1.3900 . ?
C204 C205 1.3900 . ?
C205 C206 1.3900 . ?
C205 Cl21 1.64(4) . ?
C206 Cl22 1.68(4) . ?
C401 C402 1.3900 . ?
C401 C406 1.3900 . ?
C401 Cl42 1.76(5) . ?
C402 C403 1.3900 . ?
C402 Cl41 1.73(4) . ?
C403 C404 1.3900 . ?
C404 C405 1.3900 . ?
C405 C406 1.3900 . ?
C501 Cl35 2.17(5) 13_666 ?
C501 C503 1.39(4) 13_666 ?
C501 C501 1.93(7) 13_666 ?
C102 C101 1.36(7) . ?
C101 C104 1.71(7) . ?
C101 Cl12 1.63(6) . ?
C103 C104 1.49(7) . ?
C104 Cl11 1.74(6) . ?
C304 C301 1.56(6) . ?
C301 Cl31 1.71(5) . ?
C301 C303 1.37(2) . ?
C302 C303 1.32(6) . ?
Cl32 C303 1.62(6) . ?

loop_
_geom_angle_atom_site_label_1
_geom_angle_atom_site_label_2
_geom_angle_atom_site_label_3
_geom_angle
_geom_angle_site_symmetry_1
_geom_angle_site_symmetry_3
_geom_angle_publ_flag
N3 Zn1 N2 104.1(4) . . ?
N5 Zn1 N2 106.1(3) . . ?
N5 Zn1 N3 111.9(4) . . ?
N5 Zn1 N10 112.2(4) . 12_656 ?
N10 Zn1 N2 116.5(4) 12_656 . ?
N10 Zn1 N3 105.9(3) 12_656 . ?
N1 Zn2 N6 104.0(4) . . ?
N4 Zn2 N1 106.3(3) . . ?
N4 Zn2 N6 115.8(4) . . ?
N7 Zn2 N1 111.8(4) . . ?
N7 Zn2 N4 112.3(4) . . ?
N7 Zn2 N6 106.4(3) . . ?
C8 N1 Zn2 128.2(8) . . ?
C8 N1 C27 100.3(11) . . ?
C8 N1 C7 98.4(14) . . ?
C27 N1 Zn2 128.1(10) . . ?
C7 N1 Zn2 122.0(12) . . ?
C16 N2 Zn1 123.3(7) 17 . ?
C19 N2 Zn1 132.8(7) 17 . ?
C19 N2 C16 103.9(9) 17 17 ?
C8 N3 Zn1 128.0(8) 3_665 . ?
C8 N3 C26 100.4(11) 3_665 3_665 ?
C8 N3 C1A 98.3(14) 3_665 3_665 ?
C26 N3 Zn1 127.7(10) 3_665 . ?
C1A N3 Zn1 122.7(12) 3_665 . ?
C20 N4 Zn2 124.7(7) . . ?
C20 N4 C202 101.8(12) . . ?
C20 N4 C405 99.8(12) . . ?
C202 N4 Zn2 130.2(11) . . ?
C405 N4 Zn2 134.7(12) . . ?
C15 N5 Zn1 132(2) . . ?
C15 N5 C9 96(2) . . ?
C506 N5 Zn1 126.6(13) . . ?
C9 N5 Zn1 121.2(9) . . ?
C1I N5 Zn1 124(2) . . ?
C1I N5 C506 103(2) . . ?
C19 N6 Zn2 133.2(7) . . ?
C19 N6 C4 104.1(9) . . ?
C4 N6 Zn2 122.6(7) . . ?
C15 N7 Zn2 133(2) . . ?
C15 N7 C58 95(3) . . ?
C505 N7 Zn2 125.6(13) . . ?
C58 N7 Zn2 121.1(9) . . ?
C1I N7 Zn2 123(2) . . ?
C1I N7 C505 104(2) . . ?
N1 C8 N3 117.3(11) . 2_655 ?
N1 C8 C6 116.3(11) . . ?
N3 C8 C6 115.8(11) 2_655 . ?
C20 N10 Zn1 125.4(7) . 11_566 ?
C20 N10 C203 100.5(12) . . ?
C20 N10 C404 102.0(13) . . ?
C203 N10 Zn1 133.7(12) . 11_566 ?
C404 N10 Zn1 128.9(11) . 11_566 ?
N5 C15 N7 126(4) . . ?
N5 C15 C2 117(4) . . ?
N7 C15 C2 114(4) . . ?
C4 C16 N2 110.4(9) . 18_545 ?
N2 C19 C5 123.8(11) 18_545 . ?
N6 C19 N2 112.7(10) . 18_545 ?
N6 C19 C5 123.5(11) . . ?
N10 C20 N4 119.9(9) . . ?
C27 C26 N3 106.0(17) . 2_655 ?
C11 C26 N3 132(2) . 2_655 ?
C11 C26 C27 122(2) . . ?
N1 C27 C26 108.3(17) . . ?
N1 C27 C12 132(2) . . ?
C12 C27 C26 120(2) . . ?
C504 Cl35 C501 86(3) 13_666 13_666 ?
C504 Cl35 C501 133(4) 13_666 . ?
C503 Cl35 C504 82(5) 13_666 13_666 ?
C503 Cl35 C501 52(2) 13_666 . ?
C503 Cl35 C501 26(3) 13_666 13_666 ?
C501 Cl35 C501 58(2) . 13_666 ?
N7 C505 C504 134(3) . . ?
C506 C505 N7 107(2) . . ?
C506 C505 C504 119(3) . . ?
N5 C506 C502 134(2) . . ?
C505 C506 N5 109(2) . . ?
C505 C506 C502 118(2) . . ?
C9 C58 N7 108.6(18) . . ?
C26 C11 C1 119(2) . . ?
C27 C12 C13 116(2) . . ?
C12 C13 Cl1 116(2) . . ?
C1 C13 C12 123(2) . . ?
C1 C13 Cl1 121(2) . . ?
C11 C1 Cl2 118.9(19) . . ?
C13 C1 C11 120(2) . . ?
C13 C1 Cl2 121.1(19) . . ?
C58 C9 N5 109.6(18) . . ?
Cl35 C504 C505 135(4) 13_666 . ?
Cl35 C504 C503 47(3) 13_666 . ?
C503 C504 C505 119(3) . . ?
C16 C4 N6 108.8(9) . . ?
C1A C7 N1 109(2) . . ?
C7 C1A N3 109(2) . 2_655 ?
N7 C1I N5 111(4) . . ?
C501 C502 C506 117(3) . . ?
Cl35 C503 C504 51(3) 13_666 . ?
Cl35 C503 C503 124(4) 13_666 13_666 ?
Cl35 C503 C501 137(5) 13_666 . ?
Cl35 C503 C501 94(3) 13_666 13_666 ?
C504 C503 C503 161(4) . 13_666 ?
C504 C503 C501 144(4) . 13_666 ?
C504 C503 C501 123(3) . . ?
C501 C503 C503 44.8(19) . 13_666 ?
C501 C503 C503 44.2(19) 13_666 13_666 ?
C501 C503 C501 89(3) . 13_666 ?
C202 C201 C206 120.0 . . ?
N4 C202 C201 132.5(17) . . ?
N4 C202 C203 107.2(16) . . ?
C203 C202 C201 120.0 . . ?
C202 C203 N10 108.9(17) . . ?
C204 C203 N10 130.3(16) . . ?
C204 C203 C202 120.0 . . ?
C205 C204 C203 120.0 . . ?
C204 C205 C206 120.0 . . ?
C204 C205 Cl21 125(2) . . ?
C206 C205 Cl21 115(2) . . ?
C201 C206 Cl22 122(2) . . ?
C205 C206 C201 120.0 . . ?
C205 C206 Cl22 118(2) . . ?
C402 C401 C406 120.0 . . ?
C402 C401 Cl42 111(2) . . ?
C406 C401 Cl42 128(2) . . ?
C401 C402 C403 120.0 . . ?
C401 C402 Cl41 123(2) . . ?
C403 C402 Cl41 117(2) . . ?
C402 C403 C404 120.0 . . ?
C403 C404 N10 131.2(16) . . ?
C405 C404 N10 106.7(16) . . ?
C405 C404 C403 120.0 . . ?
C404 C405 N4 109.2(16) . . ?
C404 C405 C406 120.0 . . ?
C406 C405 N4 130.3(17) . . ?
C405 C406 C401 120.0 . . ?
Cl35 C501 Cl35 122(2) . 13_666 ?
Cl35 C501 C501 72(2) . 13_666 ?
C502 C501 Cl35 121(3) . . ?
C502 C501 Cl35 115(2) . 13_666 ?
C502 C501 C503 124(3) . . ?
C502 C501 C503 140(4) . 13_666 ?
C502 C501 C501 161(4) . 13_666 ?
C503 C501 Cl35 33.4(19) 13_666 . ?
C503 C501 Cl35 93(2) 13_666 13_666 ?
C503 C501 Cl35 18(2) . 13_666 ?
C503 C501 Cl35 115(3) . . ?
C503 C501 C503 91(3) . 13_666 ?
C503 C501 C501 45.2(19) 13_666 13_666 ?
C503 C501 C501 46(2) . 13_666 ?
C501 C501 Cl35 50.0(16) 13_666 13_666 ?
C102 C101 C104 101(5) . . ?
C102 C101 Cl12 140(4) . . ?
Cl12 C101 C104 105(3) . . ?
C101 C104 Cl11 115(4) . . ?
C103 C104 C101 123(4) . . ?
C103 C104 Cl11 119(4) . . ?
C304 C301 Cl31 115(3) . . ?
C303 C301 C304 121(4) . . ?
C303 C301 Cl31 124(4) . . ?
C301 C303 Cl32 113(4) . . ?
C302 C303 C301 118(4) . . ?
C302 C303 Cl32 130(4) . . ?

loop_
_geom_torsion_atom_site_label_1
_geom_torsion_atom_site_label_2
_geom_torsion_atom_site_label_3
_geom_torsion_atom_site_label_4
_geom_torsion
_geom_torsion_site_symmetry_1
_geom_torsion_site_symmetry_2
_geom_torsion_site_symmetry_3
_geom_torsion_site_symmetry_4
_geom_torsion_publ_flag
Zn1 N5 C15 N7 164.9(19) . . . . ?
Zn1 N5 C15 C2 -35(4) . . . . ?
Zn1 N5 C506 C505 166.0(19) . . . . ?
Zn1 N5 C506 C502 -15(5) . . . . ?
Zn1 N5 C9 C58 -158.6(14) . . . . ?
Zn1 N5 C1I N7 -178(2) . . . . ?
Zn1 N10 C20 N4 -172.0(8) 11_566 . . . ?
Zn1 N10 C203 C202 176.7(13) 11_566 . . . ?
Zn1 N10 C203 C204 7(3) 11_566 . . . ?
Zn1 N10 C404 C403 -2(3) 11_566 . . . ?
Zn1 N10 C404 C405 160.7(13) 11_566 . . . ?
Zn2 N1 C8 N3 171.2(7) . . . 2_655 ?
Zn2 N1 C8 C6 -45.5(16) . . . . ?
Zn2 N1 C27 C26 174.5(10) . . . . ?
Zn2 N1 C27 C12 -7(3) . . . . ?
Zn2 N1 C7 C1A -161.6(15) . . . . ?
Zn2 N4 C20 N10 -172.6(8) . . . . ?
Zn2 N4 C202 C201 -23(3) . . . . ?
Zn2 N4 C202 C203 162.9(13) . . . . ?
Zn2 N4 C405 C404 177.3(13) . . . . ?
Zn2 N4 C405 C406 -11(3) . . . . ?
Zn2 N6 C19 N2 179.2(6) . . . 18_545 ?
Zn2 N6 C19 C5 -1.2(15) . . . . ?
Zn2 N6 C4 C16 179.4(6) . . . . ?
Zn2 N7 C15 N5 -166.0(18) . . . . ?
Zn2 N7 C15 C2 33(4) . . . . ?
Zn2 N7 C505 C506 -165.1(19) . . . . ?
Zn2 N7 C505 C504 18(5) . . . . ?
Zn2 N7 C58 C9 159.4(13) . . . . ?
Zn2 N7 C1I N5 176(2) . . . . ?
N1 C27 C12 C13 -174.1(18) . . . . ?
N1 C7 C1A N3 1(3) . . . 2_655 ?
N2 C16 C4 N6 2.7(11) 18_545 . . . ?
N3 C26 C27 N1 1.5(18) 2_655 . . . ?
N3 C26 C27 C12 -176.8(16) 2_655 . . . ?
N3 C26 C11 C1 172.1(18) 2_655 . . . ?
N4 C202 C203 N10 4(2) . . . . ?
N4 C202 C203 C204 175(2) . . . . ?
N4 C405 C406 C401 -171(3) . . . . ?
N5 C506 C502 C501 -179(3) . . . . ?
N7 C505 C506 N5 0(3) . . . . ?
N7 C505 C506 C502 -179(3) . . . . ?
N7 C505 C504 Cl35 122(5) . . . 13_666 ?
N7 C505 C504 C503 178(3) . . . . ?
N7 C58 C9 N5 0(2) . . . . ?
C8 N1 C27 C26 14.1(16) . . . . ?
C8 N1 C27 C12 -168(2) . . . . ?
C8 N1 C7 C1A -16(2) . . . . ?
N10 C203 C204 C205 169(3) . . . . ?
N10 C404 C405 N4 7(2) . . . . ?
N10 C404 C405 C406 -165(2) . . . . ?
C15 N5 C506 C505 24(3) . . . . ?
C15 N5 C506 C502 -158(4) . . . . ?
C15 N5 C9 C58 -11(2) . . . . ?
C15 N5 C1I N7 -57(12) . . . . ?
C15 N7 C505 C506 -23(3) . . . . ?
C15 N7 C505 C504 161(5) . . . . ?
C15 N7 C58 C9 10(2) . . . . ?
C15 N7 C1I N5 48(12) . . . . ?
C19 N6 C4 C16 -2.4(10) . . . . ?
C20 N4 C202 C201 177.6(18) . . . . ?
C20 N4 C202 C203 3.3(18) . . . . ?
C20 N4 C405 C404 -13.2(18) . . . . ?
C20 N4 C405 C406 158.5(19) . . . . ?
C20 N10 C203 C202 -10.1(18) . . . . ?
C20 N10 C203 C204 -179.6(18) . . . . ?
C20 N10 C404 C403 -161(2) . . . . ?
C20 N10 C404 C405 1.9(18) . . . . ?
C26 C27 C12 C13 4(3) . . . . ?
C26 C11 C1 C13 3(3) . . . . ?
C26 C11 C1 Cl2 -174.9(16) . . . . ?
C27 N1 C8 N3 -28.4(14) . . . 2_655 ?
C27 N1 C8 C6 114.9(15) . . . . ?
C27 N1 C7 C1A 81(2) . . . . ?
C27 C26 C11 C1 -2(3) . . . . ?
C27 C12 C13 C1 -3(3) . . . . ?
C27 C12 C13 Cl1 173.8(16) . . . . ?
Cl35 C504 C503 C503 83(12) 13_666 . . 13_666 ?
Cl35 C504 C503 C501 126(6) 13_666 . . . ?
Cl35 C504 C503 C501 -20(6) 13_666 . . 13_666 ?
Cl35 C503 C501 Cl35 -120(5) 13_666 . . . ?
Cl35 C503 C501 C502 64(7) 13_666 . . . ?
Cl35 C503 C501 C503 -95(6) 13_666 . . 13_666 ?
Cl35 C503 C501 C501 -95(6) 13_666 . . 13_666 ?
C505 N7 C15 N5 57(3) . . . . ?
C505 N7 C15 C2 -104(3) . . . . ?
C505 N7 C58 C9 -75(2) . . . . ?
C505 N7 C1I N5 25(4) . . . . ?
C505 C506 C502 C501 0(5) . . . . ?
C505 C504 C503 Cl35 -127(5) . . . 13_666 ?
C505 C504 C503 C503 -44(13) . . . 13_666 ?
C505 C504 C503 C501 0(6) . . . . ?
C505 C504 C503 C501 -147(5) . . . 13_666 ?
C506 N5 C15 N7 -56(3) . . . . ?
C506 N5 C15 C2 104(3) . . . . ?
C506 N5 C9 C58 75(2) . . . . ?
C506 N5 C1I N7 -25(4) . . . . ?
C506 C505 C504 Cl35 -55(6) . . . 13_666 ?
C506 C505 C504 C503 2(5) . . . . ?
C506 C502 C501 Cl35 -174(3) . . . . ?
C506 C502 C501 Cl35 20(5) . . . 13_666 ?
C506 C502 C501 C503 149(5) . . . 13_666 ?
C506 C502 C501 C503 2(6) . . . . ?
C506 C502 C501 C501 54(13) . . . 13_666 ?
C58 N7 C15 N5 -23(3) . . . . ?
C58 N7 C15 C2 176(2) . . . . ?
C58 N7 C505 C506 73(3) . . . . ?
C58 N7 C505 C504 -103(4) . . . . ?
C58 N7 C1I N5 -55(4) . . . . ?
C11 C26 C27 N1 176.7(17) . . . . ?
C11 C26 C27 C12 -2(3) . . . . ?
C12 C13 C1 C11 0(3) . . . . ?
C12 C13 C1 Cl2 177.1(17) . . . . ?
C9 N5 C15 N7 23(3) . . . . ?
C9 N5 C15 C2 -176(3) . . . . ?
C9 N5 C506 C505 -72(3) . . . . ?
C9 N5 C506 C502 106(4) . . . . ?
C9 N5 C1I N7 55(4) . . . . ?
C504 Cl35 C501 Cl35 47(5) 13_666 . . 13_666 ?
C504 Cl35 C501 C502 -119(5) 13_666 . . . ?
C504 Cl35 C501 C503 65(6) 13_666 . . . ?
C504 Cl35 C501 C503 16(5) 13_666 . . 13_666 ?
C504 Cl35 C501 C501 47(5) 13_666 . . 13_666 ?
C504 C505 C506 N5 177(3) . . . . ?
C504 C505 C506 C502 -2(5) . . . . ?
C504 C503 C501 Cl35 -66(6) . . . 13_666 ?
C504 C503 C501 Cl35 174(3) . . . . ?
C504 C503 C501 C502 -2(6) . . . . ?
C504 C503 C501 C503 -161(5) . . . 13_666 ?
C504 C503 C501 C501 -161(5) . . . 13_666 ?
C4 N6 C19 N2 1.3(10) . . . 18_545 ?
C4 N6 C19 C5 -179.2(10) . . . . ?
Cl1 C13 C1 C11 -176.8(17) . . . . ?
Cl1 C13 C1 Cl2 1(3) . . . . ?
C7 N1 C8 N3 28.2(14) . . . 2_655 ?
C7 N1 C8 C6 171.5(15) . . . . ?
C7 N1 C27 C26 -79(2) . . . . ?
C7 N1 C27 C12 99(3) . . . . ?
C1I N5 C15 N7 93(15) . . . . ?
C1I N5 C15 C2 -107(15) . . . . ?
C1I N5 C506 C505 14(4) . . . . ?
C1I N5 C506 C502 -167(4) . . . . ?
C1I N5 C9 C58 -29(2) . . . . ?
C1I N7 C15 N5 -101(16) . . . . ?
C1I N7 C15 C2 98(15) . . . . ?
C1I N7 C505 C506 -15(4) . . . . ?
C1I N7 C505 C504 169(4) . . . . ?
C1I N7 C58 C9 30(2) . . . . ?
C503 Cl35 C501 Cl35 31(3) 13_666 . . 13_666 ?
C503 Cl35 C501 C502 -135(5) 13_666 . . . ?
C503 Cl35 C501 C503 49(5) 13_666 . . . ?
C503 Cl35 C501 C501 31(3) 13_666 . . 13_666 ?
C503 C503 C501 Cl35 -24(3) 13_666 . . . ?
C503 C503 C501 Cl35 95(6) 13_666 . . 13_666 ?
C503 C503 C501 C502 159(5) 13_666 . . . ?
C503 C503 C501 C501 -0.007(16) 13_666 . . 13_666 ?
C201 C202 C203 N10 -171(2) . . . . ?
C201 C202 C203 C204 0.0 . . . . ?
C202 N4 C20 N10 -11.5(19) . . . . ?
C202 N4 C405 C404 84(4) . . . . ?
C202 N4 C405 C406 -105(4) . . . . ?
C202 C201 C206 C205 0.0 . . . . ?
C202 C201 C206 Cl22 -178(2) . . . . ?
C202 C203 C204 C205 0.0 . . . . ?
C203 N10 C20 N4 13.9(19) . . . . ?
C203 N10 C404 C403 110(6) . . . . ?
C203 N10 C404 C405 -87(5) . . . . ?
C203 C204 C205 C206 0.0 . . . . ?
C203 C204 C205 Cl21 -179(2) . . . . ?
C204 C205 C206 C201 0.0 . . . . ?
C204 C205 C206 Cl22 178(2) . . . . ?
C206 C201 C202 N4 -174(3) . . . . ?
C206 C201 C202 C203 0.0 . . . . ?
C401 C402 C403 C404 0.0 . . . . ?
C402 C401 C406 C405 0.0 . . . . ?
C402 C403 C404 N10 161(3) . . . . ?
C402 C403 C404 C405 0.0 . . . . ?
C403 C404 C405 N4 173(2) . . . . ?
C403 C404 C405 C406 0.0 . . . . ?
C404 N10 C20 N4 -12.2(19) . . . . ?
C404 N10 C203 C202 86(5) . . . . ?
C404 N10 C203 C204 -84(4) . . . . ?
C404 C405 C406 C401 0.0 . . . . ?
C405 N4 C20 N10 16.4(19) . . . . ?
C405 N4 C202 C201 89(5) . . . . ?
C405 N4 C202 C203 -85(4) . . . . ?
C406 C401 C402 C403 0.0 . . . . ?
C406 C401 C402 Cl41 179(4) . . . . ?
C501 Cl35 C501 Cl35 -0.002(5) 13_666 . . 13_666 ?
C501 Cl35 C501 C502 -165(5) 13_666 . . . ?
C501 Cl35 C501 C503 18(2) 13_666 . . . ?
C501 Cl35 C501 C503 -31(3) 13_666 . . 13_666 ?
C501 C503 C501 Cl35 95(6) 13_666 . . 13_666 ?
C501 C503 C501 Cl35 -24(3) 13_666 . . . ?
C501 C503 C501 C502 159(5) 13_666 . . . ?
C501 C503 C501 C503 0.007(5) 13_666 . . 13_666 ?
C102 C101 C104 C103 24(7) . . . . ?
C102 C101 C104 Cl11 -176(5) . . . . ?
C304 C301 C303 C302 -2(3) . . . . ?
C304 C301 C303 Cl32 179(2) . . . . ?
Cl21 C205 C206 C201 179(2) . . . . ?
Cl21 C205 C206 Cl22 -3(3) . . . . ?
Cl42 C401 C402 C403 171(3) . . . . ?
Cl42 C401 C402 Cl41 -10(4) . . . . ?
Cl42 C401 C406 C405 -169(4) . . . . ?
Cl12 C101 C104 C103 172(5) . . . . ?
Cl12 C101 C104 Cl11 -27(6) . . . . ?
Cl41 C402 C403 C404 -179(4) . . . . ?
Cl31 C301 C303 C302 176(3) . . . . ?
Cl31 C301 C303 Cl32 -2(3) . . . . ?

