####################################################################### 
# 
# This file contains crystal structure data downloaded from the 
# Cambridge Structural Database (CSD) hosted by the Cambridge 
# Crystallographic Data Centre (CCDC).
# 
# Full information about CCDC data access policies and citation 
# guidelines are available at http://www.ccdc.cam.ac.uk/access/V1 
# 
# Audit and citation data items may have been added by the CCDC. 
# Please retain this information to preserve the provenance of 
# this file and to allow appropriate attribution of the data. 
# 
#######################################################################

data_PED-1(GUEST)
_audit_block_doi                 10.5517/cc11tb4b
_database_code_depnum_ccdc_archive 'CCDC 977651'
loop_
_citation_id
_citation_doi
_citation_year
1 10.1002/anie.201404306 2014
_audit_update_record             
;
2013-12-17 deposited with the CCDC.	2021-12-15 downloaded from the CCDC.
;
_audit_creation_method           SHELXL-97
_chemical_name_systematic        
; 
 ? 
;
_chemical_name_common            ?
_chemical_melting_point          ?
_chemical_formula_moiety         ?
_chemical_formula_sum            'C71 H79 N5 O23 Zn4'
_chemical_formula_weight         1631.87

loop_
_atom_type_symbol
_atom_type_description
_atom_type_scat_dispersion_real
_atom_type_scat_dispersion_imag
_atom_type_scat_source
C C 0.0033 0.0016 'International Tables Vol C Tables 4.2.6.8 and 6.1.1.4'
H H 0.0000 0.0000 'International Tables Vol C Tables 4.2.6.8 and 6.1.1.4'
N N 0.0061 0.0033 'International Tables Vol C Tables 4.2.6.8 and 6.1.1.4'
O O 0.0106 0.0060 'International Tables Vol C Tables 4.2.6.8 and 6.1.1.4'
Zn Zn 0.2839 1.4301 'International Tables Vol C Tables 4.2.6.8 and 6.1.1.4'

_symmetry_cell_setting           triclinic
_symmetry_space_group_name_H-M   P-1

loop_
_symmetry_equiv_pos_as_xyz
'x, y, z'
'-x, -y, -z'

_cell_length_a                   12.298(3)
_cell_length_b                   14.102(3)
_cell_length_c                   23.178(5)
_cell_angle_alpha                101.346(3)
_cell_angle_beta                 90.873(2)
_cell_angle_gamma                111.092(3)
_cell_volume                     3660.8(15)
_cell_formula_units_Z            2
_cell_measurement_temperature    223(2)
_cell_measurement_reflns_used    9121
_cell_measurement_theta_min      1.8973
_cell_measurement_theta_max      31.2361

_exptl_crystal_description       chip
_exptl_crystal_colour            Colorless
_exptl_crystal_size_max          0.300
_exptl_crystal_size_mid          0.200
_exptl_crystal_size_min          0.200
_exptl_crystal_density_meas      ?
_exptl_crystal_density_diffrn    1.480
_exptl_crystal_density_method    'not measured'
_exptl_crystal_F_000             1688
_exptl_absorpt_coefficient_mu    1.374
_exptl_absorpt_correction_type   Numerical
_exptl_absorpt_correction_T_min  0.8572
_exptl_absorpt_correction_T_max  1.000
_exptl_absorpt_process_details   ?

_exptl_special_details           
; 
 ? 
;

_diffrn_ambient_temperature      223(2)
_diffrn_radiation_wavelength     0.71073
_diffrn_radiation_type           MoK\a
_diffrn_radiation_source         'fine-focus sealed tube'
_diffrn_radiation_monochromator  graphite
_diffrn_measurement_device_type  CCD
_diffrn_measurement_method       dtprofit.ref
_diffrn_detector_area_resol_mean ?
_diffrn_standards_number         ?
_diffrn_standards_interval_count ?
_diffrn_standards_interval_time  ?
_diffrn_standards_decay_%        0
_diffrn_reflns_number            33860
_diffrn_reflns_av_R_equivalents  0.0354
_diffrn_reflns_av_sigmaI/netI    0.0701
_diffrn_reflns_limit_h_min       -16
_diffrn_reflns_limit_h_max       17
_diffrn_reflns_limit_k_min       -20
_diffrn_reflns_limit_k_max       17
_diffrn_reflns_limit_l_min       -33
_diffrn_reflns_limit_l_max       33
_diffrn_reflns_theta_min         1.59
_diffrn_reflns_theta_max         31.33
_reflns_number_total             19618
_reflns_number_gt                13337
_reflns_threshold_expression     >2sigma(I)

_computing_data_collection       'CrystalClear (Rigaku/MSC Inc., 2006)'
_computing_cell_refinement       'CrystalClear (Rigaku/MSC Inc., 2006)'
_computing_data_reduction        'CrystalClear (Rigaku/MSC Inc., 2006)'
_computing_structure_solution    'SHELXS-97 (Sheldrick, 1997)'
_computing_structure_refinement  'SHELXL-97 (Sheldrick, 1997)'
_computing_molecular_graphics    ORTEP
_computing_publication_material  wingx

_refine_special_details          
; 
 Refinement of F^2^ against ALL reflections.  The weighted R-factor wR and 
 goodness of fit S are based on F^2^, conventional R-factors R are based 
 on F, with F set to zero for negative F^2^. The threshold expression of 
 F^2^ > 2sigma(F^2^) is used only for calculating R-factors(gt) etc. and is 
 not relevant to the choice of reflections for refinement.  R-factors based 
 on F^2^ are statistically about twice as large as those based on F, and R- 
 factors based on ALL data will be even larger. 
;

_refine_ls_structure_factor_coef Fsqd
_refine_ls_matrix_type           full
_refine_ls_weighting_scheme      calc
_refine_ls_weighting_details     
'calc w=1/[\s^2^(Fo^2^)+(0.1025P)^2^+2.7640P] where P=(Fo^2^+2Fc^2^)/3'
_atom_sites_solution_primary     direct
_atom_sites_solution_secondary   difmap
_atom_sites_solution_hydrogens   geom
_refine_ls_hydrogen_treatment    constr
_refine_ls_extinction_method     SHELXL
_refine_ls_extinction_coef       0.0070(5)
_refine_ls_extinction_expression Fc^*^=kFc[1+0.001xFc^2^\l^3^/sin(2\q)]^-1/4^
_refine_ls_number_reflns         19618
_refine_ls_number_parameters     931
_refine_ls_number_restraints     0
_refine_ls_R_factor_all          0.1042
_refine_ls_R_factor_gt           0.0713
_refine_ls_wR_factor_ref         0.2143
_refine_ls_wR_factor_gt          0.1787
_refine_ls_goodness_of_fit_ref   1.084
_refine_ls_restrained_S_all      1.084
_refine_ls_shift/su_max          0.000
_refine_ls_shift/su_mean         0.000

loop_
_atom_site_label
_atom_site_type_symbol
_atom_site_fract_x
_atom_site_fract_y
_atom_site_fract_z
_atom_site_U_iso_or_equiv
_atom_site_adp_type
_atom_site_occupancy
_atom_site_symmetry_multiplicity
_atom_site_calc_flag
_atom_site_refinement_flags
_atom_site_disorder_assembly
_atom_site_disorder_group
C1 C 0.5001(4) 0.7376(3) 0.19335(18) 0.0295(8) Uani 1 1 d . . .
C2 C 0.4520(4) 0.8078(3) 0.16887(17) 0.0283(8) Uani 1 1 d . . .
C3 C 0.4966(4) 0.9136(3) 0.1913(2) 0.0347(9) Uani 1 1 d . . .
H3 H 0.5562 0.9422 0.2220 0.042 Uiso 1 1 calc R . .
C4 C 0.4527(4) 0.9779(3) 0.1681(2) 0.0380(10) Uani 1 1 d . . .
H4 H 0.4826 1.0494 0.1832 0.046 Uiso 1 1 calc R . .
C5 C 0.3646(4) 0.9348(3) 0.12253(19) 0.0338(9) Uani 1 1 d . . .
H5 H 0.3360 0.9781 0.1070 0.041 Uiso 1 1 calc R . .
C6 C 0.3172(3) 0.8279(3) 0.09908(17) 0.0267(8) Uani 1 1 d . . .
C7 C 0.3611(3) 0.7648(3) 0.12313(17) 0.0269(8) Uani 1 1 d . . .
H7 H 0.3298 0.6931 0.1087 0.032 Uiso 1 1 calc R . .
C8 C 0.2185(4) 0.7814(3) 0.05091(17) 0.0280(8) Uani 1 1 d . . .
C9 C 0.1367(4) 0.8278(3) 0.04726(18) 0.0303(8) Uani 1 1 d . . .
H9 H 0.1450 0.8888 0.0743 0.036 Uiso 1 1 calc R . .
C10 C 0.0430(4) 0.7844(3) 0.00388(18) 0.0295(8) Uani 1 1 d . . .
C11 C 0.0306(4) 0.6920(3) -0.03586(18) 0.0313(9) Uani 1 1 d . . .
H11 H -0.0337 0.6609 -0.0640 0.038 Uiso 1 1 calc R . .
C12 C 0.1134(4) 0.6457(3) -0.03405(17) 0.0293(8) Uani 1 1 d . . .
C13 C 0.2073(4) 0.6920(3) 0.00974(17) 0.0284(8) Uani 1 1 d . . .
H13 H 0.2633 0.6622 0.0113 0.034 Uiso 1 1 calc R . .
C14 C 0.0985(4) 0.5469(3) -0.07675(16) 0.0277(8) Uani 1 1 d . . .
C15 C 0.1933(3) 0.5301(3) -0.10292(17) 0.0277(8) Uani 1 1 d . . .
H15 H 0.2679 0.5812 -0.0935 0.033 Uiso 1 1 calc R . .
C16 C 0.1771(4) 0.4369(3) -0.14333(17) 0.0285(8) Uani 1 1 d . . .
C17 C 0.0667(4) 0.3607(4) -0.15675(19) 0.0350(9) Uani 1 1 d . . .
H17 H 0.0556 0.2985 -0.1833 0.042 Uiso 1 1 calc R . .
C18 C -0.0275(4) 0.3768(4) -0.1308(2) 0.0382(10) Uani 1 1 d . . .
H18 H -0.1018 0.3251 -0.1399 0.046 Uiso 1 1 calc R . .
C19 C -0.0119(4) 0.4697(4) -0.0911(2) 0.0351(9) Uani 1 1 d . . .
H19 H -0.0760 0.4800 -0.0742 0.042 Uiso 1 1 calc R . .
C20 C 0.2784(4) 0.4203(3) -0.17394(17) 0.0282(8) Uani 1 1 d . . .
C21 C -0.0458(4) 0.8335(3) 0.00036(18) 0.0311(9) Uani 1 1 d . . .
C22 C -0.1050(4) 0.8222(3) -0.05395(18) 0.0309(9) Uani 1 1 d . . .
H22 H -0.0840 0.7888 -0.0882 0.037 Uiso 1 1 calc R . .
C23 C -0.1947(4) 0.8595(3) -0.05834(18) 0.0305(9) Uani 1 1 d . . .
C24 C -0.2229(4) 0.9132(4) -0.0077(2) 0.0410(11) Uani 1 1 d . . .
H24 H -0.2822 0.9389 -0.0100 0.049 Uiso 1 1 calc R . .
C25 C -0.1619(5) 0.9283(5) 0.0465(2) 0.0498(14) Uani 1 1 d . . .
H25 H -0.1797 0.9655 0.0804 0.060 Uiso 1 1 calc R . .
C26 C -0.0757(5) 0.8887(4) 0.0502(2) 0.0440(12) Uani 1 1 d . . .
H26 H -0.0364 0.8989 0.0869 0.053 Uiso 1 1 calc R . .
C27 C -0.2617(4) 0.8399(3) -0.11724(19) 0.0302(9) Uani 1 1 d . . .
C28 C 0.2502(4) 0.3733(3) 0.32740(17) 0.0281(8) Uani 1 1 d . . .
C29 C 0.1573(3) 0.4012(3) 0.35996(17) 0.0269(8) Uani 1 1 d . . .
C30 C 0.1841(3) 0.5024(3) 0.39285(17) 0.0271(8) Uani 1 1 d . . .
H30 H 0.2595 0.5514 0.3948 0.033 Uiso 1 1 calc R . .
C31 C 0.0995(3) 0.5311(3) 0.42267(17) 0.0254(8) Uani 1 1 d . . .
C32 C -0.0130(4) 0.4555(3) 0.41941(18) 0.0304(8) Uani 1 1 d . . .
H32 H -0.0703 0.4730 0.4394 0.036 Uiso 1 1 calc R . .
C33 C -0.0403(4) 0.3548(4) 0.38678(19) 0.0347(9) Uani 1 1 d . . .
H33 H -0.1156 0.3056 0.3847 0.042 Uiso 1 1 calc R . .
C34 C 0.0448(4) 0.3281(3) 0.35751(19) 0.0324(9) Uani 1 1 d . . .
H34 H 0.0267 0.2605 0.3359 0.039 Uiso 1 1 calc R . .
C35 C 0.1262(4) 0.6388(3) 0.45759(17) 0.0284(8) Uani 1 1 d . . .
C36 C 0.2320(4) 0.6943(3) 0.49296(18) 0.0301(8) Uani 1 1 d . . .
H36 H 0.2880 0.6642 0.4935 0.036 Uiso 1 1 calc R . .
C37 C 0.2551(4) 0.7930(3) 0.52723(18) 0.0311(9) Uani 1 1 d . . .
C38 C 0.1706(4) 0.8376(3) 0.52562(18) 0.0315(9) Uani 1 1 d . . .
H38 H 0.1857 0.9042 0.5480 0.038 Uiso 1 1 calc R . .
C39 C 0.0650(4) 0.7846(3) 0.49145(18) 0.0312(9) Uani 1 1 d . . .
C40 C 0.0437(4) 0.6850(3) 0.45731(18) 0.0309(9) Uani 1 1 d . . .
H40 H -0.0270 0.6490 0.4340 0.037 Uiso 1 1 calc R . .
C41 C 0.3641(4) 0.8480(3) 0.56848(19) 0.0327(9) Uani 1 1 d . . .
C42 C 0.3996(4) 0.7944(3) 0.60447(18) 0.0289(8) Uani 1 1 d . . .
H42 H 0.3563 0.7240 0.6015 0.035 Uiso 1 1 calc R . .
C43 C 0.4991(4) 0.8440(3) 0.64513(19) 0.0332(9) Uani 1 1 d . . .
C44 C 0.5624(5) 0.9490(4) 0.6490(3) 0.0512(14) Uani 1 1 d . . .
H44 H 0.6276 0.9835 0.6764 0.061 Uiso 1 1 calc R . .
C45 C 0.5300(6) 1.0029(4) 0.6129(3) 0.069(2) Uani 1 1 d . . .
H45 H 0.5757 1.0724 0.6146 0.083 Uiso 1 1 calc R . .
C46 C 0.4295(5) 0.9539(4) 0.5738(3) 0.0556(16) Uani 1 1 d . . .
H46 H 0.4057 0.9918 0.5511 0.067 Uiso 1 1 calc R . .
C47 C 0.5361(4) 0.7825(3) 0.68196(17) 0.0276(8) Uani 1 1 d . . .
C48 C -0.0289(4) 0.8285(3) 0.49220(18) 0.0310(9) Uani 1 1 d . . .
C49 C -0.1042(4) 0.8068(3) 0.44180(17) 0.0283(8) Uani 1 1 d . . .
H49 H -0.0921 0.7684 0.4067 0.034 Uiso 1 1 calc R . .
C50 C -0.1967(4) 0.8409(3) 0.44279(18) 0.0285(8) Uani 1 1 d . . .
C51 C -0.2139(4) 0.9000(4) 0.49458(19) 0.0352(10) Uani 1 1 d . . .
H51 H -0.2763 0.9228 0.4956 0.042 Uiso 1 1 calc R . .
C52 C -0.1379(5) 0.9251(4) 0.5447(2) 0.0441(12) Uani 1 1 d . . .
H52 H -0.1481 0.9659 0.5794 0.053 Uiso 1 1 calc R . .
C53 C -0.0464(4) 0.8894(4) 0.5433(2) 0.0411(11) Uani 1 1 d . . .
H53 H 0.0041 0.9065 0.5772 0.049 Uiso 1 1 calc R . .
C54 C -0.2805(4) 0.8104(3) 0.38791(19) 0.0308(9) Uani 1 1 d . . .
C55 C 0.5607(4) 0.5859(3) 0.42720(18) 0.0316(9) Uani 1 1 d . . .
H55 H 0.5032 0.6062 0.4131 0.038 Uiso 1 1 calc R . .
C56 C 0.6919(5) 0.5941(5) 0.5083(2) 0.0544(14) Uani 1 1 d . . .
H56A H 0.7100 0.6271 0.5494 0.082 Uiso 1 1 calc R . .
H56B H 0.7609 0.6170 0.4879 0.082 Uiso 1 1 calc R . .
H56C H 0.6647 0.5199 0.5039 0.082 Uiso 1 1 calc R . .
C57 C 0.5539(5) 0.6882(4) 0.5230(2) 0.0560(14) Uani 1 1 d . . .
H57A H 0.5936 0.7066 0.5618 0.084 Uiso 1 1 calc R . .
H57B H 0.4717 0.6514 0.5244 0.084 Uiso 1 1 calc R . .
H57C H 0.5653 0.7502 0.5087 0.084 Uiso 1 1 calc R . .
C58 C 0.4262(4) 0.3847(4) 0.0638(2) 0.0375(10) Uani 1 1 d . . .
H58 H 0.4815 0.3603 0.0761 0.045 Uiso 1 1 calc R . .
C59 C 0.3118(6) 0.4022(6) -0.0152(3) 0.0668(18) Uani 1 1 d . . .
H59A H 0.3011 0.3817 -0.0575 0.100 Uiso 1 1 calc R . .
H59B H 0.3392 0.4767 -0.0034 0.100 Uiso 1 1 calc R . .
H59C H 0.2386 0.3722 0.0007 0.100 Uiso 1 1 calc R . .
C60 C 0.4518(6) 0.3111(6) -0.0355(3) 0.074(2) Uani 1 1 d . . .
H60A H 0.4198 0.3047 -0.0747 0.111 Uiso 1 1 calc R . .
H60B H 0.4368 0.2431 -0.0282 0.111 Uiso 1 1 calc R . .
H60C H 0.5347 0.3494 -0.0317 0.111 Uiso 1 1 calc R . .
C61 C 0.2072(7) 0.4693(11) 0.2142(4) 0.155(6) Uani 1 1 d . . .
H61 H 0.2313 0.5415 0.2225 0.186 Uiso 1 1 calc R . .
C62 C 0.0167(9) 0.3425(7) 0.2022(3) 0.115(4) Uani 1 1 d . . .
H62A H -0.0601 0.3387 0.2119 0.173 Uiso 1 1 calc R . .
H62B H 0.0392 0.2960 0.2205 0.173 Uiso 1 1 calc R . .
H62C H 0.0163 0.3230 0.1601 0.173 Uiso 1 1 calc R . .
C63 C 0.0579(9) 0.5202(7) 0.2558(3) 0.096(3) Uani 1 1 d . . .
H63A H -0.0251 0.4896 0.2576 0.144 Uiso 1 1 calc R . .
H63B H 0.0753 0.5783 0.2370 0.144 Uiso 1 1 calc R . .
H63C H 0.0967 0.5437 0.2951 0.144 Uiso 1 1 calc R . .
C64 C 0.7567(8) 1.1256(7) 0.2616(5) 0.099(3) Uani 1 1 d . . .
H64 H 0.7131 1.1282 0.2938 0.119 Uiso 1 1 calc R . .
C65 C 0.8039(12) 1.0054(9) 0.3067(4) 0.180(7) Uani 1 1 d . . .
H65A H 0.8511 0.9637 0.2997 0.271 Uiso 1 1 calc R . .
H65B H 0.7235 0.9610 0.3066 0.271 Uiso 1 1 calc R . .
H65C H 0.8300 1.0530 0.3443 0.271 Uiso 1 1 calc R . .
C66 C 0.8785(15) 1.0432(14) 0.2161(5) 0.233(10) Uani 1 1 d . . .
H66A H 0.9132 0.9955 0.2240 0.349 Uiso 1 1 calc R . .
H66B H 0.9391 1.1072 0.2127 0.349 Uiso 1 1 calc R . .
H66C H 0.8285 1.0134 0.1798 0.349 Uiso 1 1 calc R . .
C67 C 0.2222(6) 0.8227(6) 0.2662(4) 0.076(2) Uani 1 1 d . . .
H67 H 0.2740 0.8417 0.2380 0.091 Uiso 1 1 calc R . .
C68 C 0.1312(8) 0.9271(7) 0.2344(4) 0.103(3) Uani 1 1 d . . .
H68A H 0.0642 0.9458 0.2421 0.155 Uiso 1 1 calc R . .
H68B H 0.1250 0.8939 0.1935 0.155 Uiso 1 1 calc R . .
H68C H 0.2010 0.9887 0.2434 0.155 Uiso 1 1 calc R . .
C69 C 0.0489(7) 0.8307(7) 0.3111(3) 0.095(3) Uani 1 1 d . . .
H69A H -0.0055 0.8641 0.3069 0.143 Uiso 1 1 calc R . .
H69B H 0.0858 0.8538 0.3509 0.143 Uiso 1 1 calc R . .
H69C H 0.0080 0.7566 0.3028 0.143 Uiso 1 1 calc R . .
C70 C 0.7911(6) 0.5099(8) 0.3203(3) 0.103(3) Uani 1 1 d . . .
H70A H 0.8576 0.5173 0.2979 0.154 Uiso 1 1 calc R . .
H70B H 0.7842 0.4595 0.3439 0.154 Uiso 1 1 calc R . .
H70C H 0.8013 0.5757 0.3457 0.154 Uiso 1 1 calc R . .
C71 C 0.6164(7) 0.1259(6) 0.0628(4) 0.096(3) Uani 1 1 d . . .
H71A H 0.6998 0.1507 0.0618 0.145 Uiso 1 1 calc R . .
H71B H 0.5792 0.0875 0.0242 0.145 Uiso 1 1 calc R . .
H71C H 0.5940 0.0815 0.0906 0.145 Uiso 1 1 calc R . .
N1 N 0.6011(3) 0.6218(3) 0.48327(16) 0.0363(8) Uani 1 1 d . . .
N2 N 0.3973(4) 0.3659(4) 0.00709(17) 0.0457(10) Uani 1 1 d . . .
N3 N 0.0973(4) 0.4452(4) 0.2228(2) 0.0515(12) Uani 1 1 d . . .
N4 N 0.8141(5) 1.0623(4) 0.2613(2) 0.0680(15) Uani 1 1 d . . .
N5 N 0.1363(4) 0.8570(4) 0.2707(2) 0.0571(12) Uani 1 1 d . . .
O1 O 0.4566(3) 0.6420(2) 0.17112(13) 0.0364(7) Uani 1 1 d . . .
O2 O 0.5802(3) 0.7820(2) 0.23494(14) 0.0376(7) Uani 1 1 d . . .
O3 O 0.2499(3) 0.3367(2) -0.21356(13) 0.0363(7) Uani 1 1 d . . .
O4 O 0.3798(3) 0.4860(2) -0.15945(12) 0.0312(6) Uani 1 1 d . . .
O5 O -0.2098(3) 0.8222(3) -0.16270(13) 0.0359(7) Uani 1 1 d . . .
O6 O -0.3621(3) 0.8398(3) -0.11847(15) 0.0409(8) Uani 1 1 d . . .
O7 O 0.2145(3) 0.2884(2) 0.28843(13) 0.0349(7) Uani 1 1 d . . .
O8 O 0.3542(3) 0.4336(2) 0.34060(13) 0.0331(6) Uani 1 1 d . . .
O9 O 0.4821(3) 0.6862(2) 0.66926(14) 0.0359(7) Uani 1 1 d . . .
O10 O 0.6186(3) 0.8318(2) 0.72239(13) 0.0368(7) Uani 1 1 d . . .
O11 O -0.2473(3) 0.7691(3) 0.34100(13) 0.0368(7) Uani 1 1 d . . .
O12 O -0.3732(3) 0.8253(3) 0.39206(15) 0.0486(9) Uani 1 1 d . . .
O13 O 0.4500(3) 0.3685(2) 0.22009(12) 0.0286(6) Uani 1 1 d . . .
O14 O 0.5128(2) 0.5746(2) 0.27764(12) 0.0255(6) Uani 1 1 d . . .
O15 O 0.5952(3) 0.5264(2) 0.39195(13) 0.0347(7) Uani 1 1 d . . .
O16 O 0.3853(3) 0.4326(3) 0.10208(14) 0.0422(8) Uani 1 1 d . . .
O17 O 0.2785(3) 0.4625(5) 0.2053(2) 0.0866(18) Uani 1 1 d . . .
O18 O 0.7487(7) 1.1756(5) 0.2324(4) 0.148(4) Uani 1 1 d . . .
O19 O 0.2376(5) 0.7678(5) 0.2966(3) 0.110(2) Uani 1 1 d . . .
O20 O 0.6898(3) 0.4768(3) 0.28184(14) 0.0384(7) Uani 1 1 d . . .
O21 O 0.5808(4) 0.2127(4) 0.0805(2) 0.0725(12) Uani 1 1 d . . .
H21 H 0.5116 0.1916 0.0867 0.109 Uiso 1 1 calc R . .
O22 O 0.6662(4) 0.3093(4) 0.19860(19) 0.0697(12) Uani 1 1 d . . .
O23 O 0.4015(3) 0.6960(3) 0.34586(18) 0.0518(9) Uani 1 1 d . . .
Zn1 Zn 0.64691(4) 0.69697(4) 0.27053(2) 0.02766(13) Uani 1 1 d . . .
Zn2 Zn 0.45214(4) 0.50049(4) 0.18930(2) 0.02700(13) Uani 1 1 d . . .
Zn3 Zn 0.31906(4) 0.24753(4) 0.23370(2) 0.02701(13) Uani 1 1 d . . .
Zn4 Zn 0.51674(4) 0.44823(4) 0.308006(19) 0.02547(12) Uani 1 1 d . . .

loop_
_atom_site_aniso_label
_atom_site_aniso_U_11
_atom_site_aniso_U_22
_atom_site_aniso_U_33
_atom_site_aniso_U_23
_atom_site_aniso_U_13
_atom_site_aniso_U_12
C1 0.031(2) 0.035(2) 0.0263(19) 0.0107(17) 0.0012(17) 0.0153(18)
C2 0.031(2) 0.031(2) 0.0268(19) 0.0076(16) 0.0003(16) 0.0153(17)
C3 0.032(2) 0.035(2) 0.035(2) 0.0061(18) -0.0053(18) 0.0108(19)
C4 0.041(2) 0.025(2) 0.042(2) 0.0062(18) -0.008(2) 0.0060(19)
C5 0.039(2) 0.031(2) 0.034(2) 0.0086(18) -0.0001(19) 0.0163(19)
C6 0.0265(19) 0.030(2) 0.0246(18) 0.0058(15) 0.0010(15) 0.0122(16)
C7 0.0278(19) 0.0264(19) 0.0260(18) 0.0043(15) -0.0007(16) 0.0104(16)
C8 0.029(2) 0.032(2) 0.0253(18) 0.0105(16) 0.0002(16) 0.0127(17)
C9 0.036(2) 0.033(2) 0.0255(18) 0.0051(16) 0.0005(17) 0.0174(18)
C10 0.032(2) 0.037(2) 0.0269(19) 0.0092(17) 0.0009(17) 0.0211(18)
C11 0.030(2) 0.040(2) 0.0263(19) 0.0091(17) -0.0006(17) 0.0156(18)
C12 0.032(2) 0.036(2) 0.0248(18) 0.0064(16) 0.0017(16) 0.0184(18)
C13 0.030(2) 0.034(2) 0.0266(19) 0.0112(16) 0.0012(16) 0.0163(18)
C14 0.033(2) 0.035(2) 0.0195(17) 0.0074(15) 0.0023(16) 0.0179(18)
C15 0.0245(19) 0.035(2) 0.0227(17) 0.0065(16) -0.0010(15) 0.0108(17)
C16 0.031(2) 0.034(2) 0.0218(17) 0.0051(16) 0.0000(16) 0.0142(17)
C17 0.033(2) 0.036(2) 0.032(2) 0.0041(18) 0.0030(18) 0.0104(19)
C18 0.033(2) 0.033(2) 0.040(2) 0.0027(19) 0.0029(19) 0.0046(19)
C19 0.027(2) 0.044(2) 0.036(2) 0.0120(19) 0.0104(18) 0.0134(19)
C20 0.029(2) 0.033(2) 0.0257(18) 0.0072(16) 0.0003(16) 0.0151(17)
C21 0.032(2) 0.038(2) 0.0268(19) 0.0025(17) -0.0032(17) 0.0198(19)
C22 0.035(2) 0.032(2) 0.0269(19) 0.0016(16) -0.0050(17) 0.0165(18)
C23 0.034(2) 0.032(2) 0.0282(19) 0.0027(16) -0.0021(17) 0.0178(18)
C24 0.041(3) 0.057(3) 0.033(2) -0.001(2) -0.007(2) 0.034(2)
C25 0.059(3) 0.075(4) 0.030(2) 0.001(2) 0.003(2) 0.047(3)
C26 0.050(3) 0.063(3) 0.025(2) -0.001(2) -0.006(2) 0.034(3)
C27 0.032(2) 0.0247(19) 0.034(2) 0.0024(16) -0.0090(18) 0.0136(17)
C28 0.031(2) 0.037(2) 0.0206(17) 0.0091(16) 0.0025(16) 0.0168(18)
C29 0.0259(19) 0.035(2) 0.0236(17) 0.0073(16) 0.0028(15) 0.0151(17)
C30 0.0234(18) 0.032(2) 0.0247(18) 0.0052(15) -0.0007(15) 0.0096(16)
C31 0.0234(18) 0.0313(19) 0.0239(17) 0.0039(15) -0.0025(15) 0.0144(16)
C32 0.0257(19) 0.040(2) 0.0251(18) 0.0018(17) 0.0003(16) 0.0141(18)
C33 0.026(2) 0.041(2) 0.036(2) 0.0080(19) 0.0043(18) 0.0109(18)
C34 0.036(2) 0.027(2) 0.032(2) 0.0050(17) 0.0041(18) 0.0096(18)
C35 0.028(2) 0.036(2) 0.0225(17) 0.0069(16) -0.0006(16) 0.0128(17)
C36 0.028(2) 0.035(2) 0.034(2) 0.0102(17) -0.0028(17) 0.0175(18)
C37 0.030(2) 0.036(2) 0.031(2) 0.0088(17) -0.0040(17) 0.0151(18)
C38 0.038(2) 0.031(2) 0.0277(19) 0.0024(16) -0.0085(18) 0.0179(19)
C39 0.034(2) 0.038(2) 0.0259(19) 0.0068(17) -0.0051(17) 0.0188(19)
C40 0.031(2) 0.037(2) 0.0277(19) 0.0038(17) -0.0039(17) 0.0182(18)
C41 0.032(2) 0.032(2) 0.035(2) 0.0044(18) -0.0082(18) 0.0154(18)
C42 0.029(2) 0.0269(19) 0.032(2) 0.0027(16) -0.0049(17) 0.0135(17)
C43 0.034(2) 0.033(2) 0.035(2) 0.0067(18) -0.0075(18) 0.0167(19)
C44 0.052(3) 0.028(2) 0.063(3) 0.003(2) -0.032(3) 0.007(2)
C45 0.065(4) 0.033(3) 0.098(5) 0.021(3) -0.044(4) 0.003(3)
C46 0.054(3) 0.034(3) 0.074(4) 0.016(3) -0.033(3) 0.011(2)
C47 0.032(2) 0.029(2) 0.0225(18) 0.0005(15) -0.0023(16) 0.0158(17)
C48 0.031(2) 0.034(2) 0.030(2) 0.0036(17) -0.0034(17) 0.0162(18)
C49 0.030(2) 0.032(2) 0.0241(18) 0.0032(16) -0.0016(16) 0.0144(17)
C50 0.030(2) 0.033(2) 0.0263(19) 0.0053(16) -0.0020(16) 0.0165(17)
C51 0.038(2) 0.039(2) 0.034(2) 0.0015(18) -0.0014(19) 0.024(2)
C52 0.055(3) 0.055(3) 0.029(2) -0.006(2) -0.005(2) 0.036(3)
C53 0.045(3) 0.051(3) 0.028(2) -0.004(2) -0.013(2) 0.025(2)
C54 0.030(2) 0.032(2) 0.031(2) 0.0049(17) -0.0045(17) 0.0127(18)
C55 0.031(2) 0.035(2) 0.029(2) 0.0103(17) 0.0019(17) 0.0112(18)
C56 0.052(3) 0.074(4) 0.035(3) 0.011(3) -0.011(2) 0.022(3)
C57 0.059(3) 0.051(3) 0.047(3) -0.004(2) 0.015(3) 0.013(3)
C58 0.042(3) 0.034(2) 0.034(2) 0.0065(18) -0.005(2) 0.011(2)
C59 0.062(4) 0.089(5) 0.046(3) 0.020(3) -0.017(3) 0.022(4)
C60 0.072(4) 0.082(5) 0.050(3) -0.006(3) 0.019(3) 0.017(4)
C61 0.070(5) 0.357(18) 0.140(8) 0.202(11) 0.063(5) 0.122(8)
C62 0.175(10) 0.096(6) 0.044(4) 0.021(4) 0.008(5) 0.011(7)
C63 0.140(8) 0.105(6) 0.076(5) 0.030(5) 0.008(5) 0.080(6)
C64 0.072(5) 0.062(5) 0.139(9) -0.008(5) -0.008(5) 0.011(4)
C65 0.229(14) 0.136(9) 0.098(7) 0.071(7) -0.071(9) -0.045(9)
C66 0.32(2) 0.34(2) 0.111(10) -0.010(12) 0.055(12) 0.24(2)
C67 0.050(4) 0.060(4) 0.100(6) -0.011(4) -0.001(4) 0.015(3)
C68 0.088(6) 0.083(6) 0.128(8) 0.035(6) -0.002(6) 0.013(5)
C69 0.087(5) 0.107(6) 0.074(5) 0.008(5) 0.040(4) 0.020(5)
C70 0.050(4) 0.192(10) 0.059(4) -0.016(5) -0.010(3) 0.059(5)
C71 0.113(6) 0.069(5) 0.103(6) 0.023(4) 0.066(5) 0.024(5)
N1 0.038(2) 0.042(2) 0.0260(17) 0.0039(15) -0.0021(15) 0.0127(17)
N2 0.050(2) 0.054(3) 0.0274(18) 0.0060(18) -0.0009(18) 0.014(2)
N3 0.039(2) 0.081(3) 0.057(3) 0.039(3) 0.018(2) 0.036(2)
N4 0.088(4) 0.062(3) 0.054(3) 0.008(3) -0.005(3) 0.031(3)
N5 0.042(3) 0.053(3) 0.064(3) -0.004(2) 0.000(2) 0.013(2)
O1 0.0489(19) 0.0324(16) 0.0316(15) 0.0062(13) -0.0086(14) 0.0201(15)
O2 0.0408(18) 0.0350(16) 0.0389(17) 0.0101(14) -0.0149(15) 0.0160(14)
O3 0.0359(16) 0.0370(17) 0.0305(15) -0.0018(13) 0.0071(13) 0.0116(14)
O4 0.0299(15) 0.0367(16) 0.0284(14) 0.0055(12) 0.0032(12) 0.0150(13)
O5 0.0348(16) 0.0420(18) 0.0277(15) 0.0023(13) -0.0061(13) 0.0134(14)
O6 0.0372(18) 0.0463(19) 0.0419(18) -0.0002(15) -0.0111(15) 0.0243(16)
O7 0.0354(16) 0.0362(16) 0.0310(15) 0.0009(13) 0.0045(13) 0.0140(14)
O8 0.0280(15) 0.0384(17) 0.0322(15) 0.0029(13) 0.0018(12) 0.0140(13)
O9 0.0425(18) 0.0319(16) 0.0356(16) 0.0085(13) -0.0111(14) 0.0165(14)
O10 0.0414(18) 0.0368(17) 0.0327(16) 0.0040(13) -0.0156(14) 0.0177(15)
O11 0.0343(17) 0.0489(19) 0.0262(14) -0.0001(13) -0.0087(13) 0.0190(15)
O12 0.0375(19) 0.068(2) 0.045(2) 0.0005(18) -0.0108(16) 0.0319(18)
O13 0.0332(15) 0.0285(14) 0.0253(13) 0.0064(11) -0.0036(12) 0.0127(12)
O14 0.0269(14) 0.0284(14) 0.0238(13) 0.0065(11) 0.0006(11) 0.0128(12)
O15 0.0362(16) 0.0393(17) 0.0265(14) 0.0022(13) -0.0026(13) 0.0143(14)
O16 0.049(2) 0.048(2) 0.0288(16) 0.0010(14) -0.0081(15) 0.0207(17)
O17 0.031(2) 0.176(6) 0.075(3) 0.077(4) 0.017(2) 0.039(3)
O18 0.152(7) 0.083(5) 0.217(9) 0.050(5) -0.045(6) 0.048(5)
O19 0.070(4) 0.078(4) 0.181(7) 0.034(4) -0.032(4) 0.025(3)
O20 0.0279(15) 0.051(2) 0.0375(17) 0.0103(15) -0.0017(13) 0.0162(15)
O21 0.063(3) 0.070(3) 0.083(3) 0.019(3) 0.022(3) 0.020(2)
O22 0.098(3) 0.067(3) 0.056(2) 0.011(2) 0.016(2) 0.045(3)
O23 0.043(2) 0.045(2) 0.067(2) 0.0037(18) 0.0058(18) 0.0206(17)
Zn1 0.0278(2) 0.0324(3) 0.0230(2) 0.00430(18) -0.00428(19) 0.0126(2)
Zn2 0.0264(2) 0.0332(3) 0.0227(2) 0.00700(18) -0.00122(18) 0.0122(2)
Zn3 0.0283(2) 0.0303(2) 0.0228(2) 0.00227(18) -0.00490(19) 0.0134(2)
Zn4 0.0268(2) 0.0300(2) 0.0216(2) 0.00589(18) -0.00112(18) 0.01289(19)

_geom_special_details            
; 
 All esds (except the esd in the dihedral angle between two l.s. planes) 
 are estimated using the full covariance matrix.  The cell esds are taken 
 into account individually in the estimation of esds in distances, angles 
 and torsion angles; correlations between esds in cell parameters are only 
 used when they are defined by crystal symmetry.  An approximate (isotropic) 
 treatment of cell esds is used for estimating esds involving l.s. planes. 
;

loop_
_geom_bond_atom_site_label_1
_geom_bond_atom_site_label_2
_geom_bond_distance
_geom_bond_site_symmetry_2
_geom_bond_publ_flag
C1 O1 1.251(5) . ?
C1 O2 1.258(5) . ?
C1 C2 1.512(5) . ?
C2 C3 1.377(6) . ?
C2 C7 1.401(6) . ?
C3 C4 1.392(6) . ?
C3 H3 0.9300 . ?
C4 C5 1.377(6) . ?
C4 H4 0.9300 . ?
C5 C6 1.394(6) . ?
C5 H5 0.9300 . ?
C6 C7 1.388(5) . ?
C6 C8 1.499(5) . ?
C7 H7 0.9300 . ?
C8 C13 1.384(6) . ?
C8 C9 1.394(6) . ?
C9 C10 1.388(6) . ?
C9 H9 0.9300 . ?
C10 C11 1.396(6) . ?
C10 C21 1.499(6) . ?
C11 C12 1.398(6) . ?
C11 H11 0.9300 . ?
C12 C13 1.397(6) . ?
C12 C14 1.491(6) . ?
C13 H13 0.9300 . ?
C14 C19 1.386(6) . ?
C14 C15 1.395(5) . ?
C15 C16 1.402(6) . ?
C15 H15 0.9300 . ?
C16 C17 1.379(6) . ?
C16 C20 1.510(6) . ?
C17 C18 1.383(6) . ?
C17 H17 0.9300 . ?
C18 C19 1.392(6) . ?
C18 H18 0.9300 . ?
C19 H19 0.9300 . ?
C20 O4 1.250(5) . ?
C20 O3 1.274(5) . ?
C21 C26 1.393(6) . ?
C21 C22 1.396(6) . ?
C22 C23 1.392(6) . ?
C22 H22 0.9300 . ?
C23 C24 1.386(6) . ?
C23 C27 1.508(6) . ?
C24 C25 1.391(6) . ?
C24 H24 0.9300 . ?
C25 C26 1.373(6) . ?
C25 H25 0.9300 . ?
C26 H26 0.9300 . ?
C27 O6 1.234(5) . ?
C27 O5 1.270(5) . ?
C28 O8 1.247(5) . ?
C28 O7 1.275(5) . ?
C28 C29 1.504(5) . ?
C29 C34 1.388(6) . ?
C29 C30 1.398(6) . ?
C30 C31 1.392(5) . ?
C30 H30 0.9300 . ?
C31 C32 1.399(6) . ?
C31 C35 1.490(6) . ?
C32 C33 1.389(6) . ?
C32 H32 0.9300 . ?
C33 C34 1.379(6) . ?
C33 H33 0.9300 . ?
C34 H34 0.9300 . ?
C35 C40 1.389(6) . ?
C35 C36 1.400(6) . ?
C36 C37 1.387(6) . ?
C36 H36 0.9300 . ?
C37 C38 1.399(6) . ?
C37 C41 1.494(6) . ?
C38 C39 1.381(6) . ?
C38 H38 0.9300 . ?
C39 C40 1.400(6) . ?
C39 C48 1.493(6) . ?
C40 H40 0.9300 . ?
C41 C42 1.390(6) . ?
C41 C46 1.398(7) . ?
C42 C43 1.402(6) . ?
C42 H42 0.9300 . ?
C43 C44 1.386(6) . ?
C43 C47 1.500(6) . ?
C44 C45 1.377(7) . ?
C44 H44 0.9300 . ?
C45 C46 1.390(7) . ?
C45 H45 0.9300 . ?
C46 H46 0.9300 . ?
C47 O9 1.249(5) . ?
C47 O10 1.264(5) . ?
C48 C53 1.387(6) . ?
C48 C49 1.392(6) . ?
C49 C50 1.386(5) . ?
C49 H49 0.9300 . ?
C50 C51 1.386(6) . ?
C50 C54 1.513(6) . ?
C51 C52 1.385(6) . ?
C51 H51 0.9300 . ?
C52 C53 1.386(6) . ?
C52 H52 0.9300 . ?
C53 H53 0.9300 . ?
C54 O12 1.233(5) . ?
C54 O11 1.274(5) . ?
C55 O15 1.245(5) . ?
C55 N1 1.316(5) . ?
C55 H55 0.9300 . ?
C56 N1 1.455(6) . ?
C56 H56A 0.9600 . ?
C56 H56B 0.9600 . ?
C56 H56C 0.9600 . ?
C57 N1 1.459(6) . ?
C57 H57A 0.9600 . ?
C57 H57B 0.9600 . ?
C57 H57C 0.9600 . ?
C58 O16 1.233(6) . ?
C58 N2 1.305(6) . ?
C58 H58 0.9300 . ?
C59 N2 1.453(7) . ?
C59 H59A 0.9600 . ?
C59 H59B 0.9600 . ?
C59 H59C 0.9600 . ?
C60 N2 1.453(7) . ?
C60 H60A 0.9600 . ?
C60 H60B 0.9600 . ?
C60 H60C 0.9600 . ?
C61 O17 0.938(8) . ?
C61 N3 1.298(8) . ?
C61 H61 0.9300 . ?
C62 N3 1.410(9) . ?
C62 H62A 0.9600 . ?
C62 H62B 0.9600 . ?
C62 H62C 0.9600 . ?
C63 N3 1.414(8) . ?
C63 H63A 0.9600 . ?
C63 H63B 0.9600 . ?
C63 H63C 0.9600 . ?
C64 O18 1.095(11) . ?
C64 N4 1.321(10) . ?
C64 H64 0.9300 . ?
C65 N4 1.424(10) . ?
C65 H65A 0.9600 . ?
C65 H65B 0.9600 . ?
C65 H65C 0.9600 . ?
C66 N4 1.367(12) . ?
C66 H66A 0.9600 . ?
C66 H66B 0.9600 . ?
C66 H66C 0.9600 . ?
C67 O19 1.204(9) . ?
C67 N5 1.309(8) . ?
C67 H67 0.9300 . ?
C68 N5 1.435(9) . ?
C68 H68A 0.9600 . ?
C68 H68B 0.9600 . ?
C68 H68C 0.9600 . ?
C69 N5 1.432(8) . ?
C69 H69A 0.9600 . ?
C69 H69B 0.9600 . ?
C69 H69C 0.9600 . ?
C70 O20 1.396(7) . ?
C70 H70A 0.9600 . ?
C70 H70B 0.9600 . ?
C70 H70C 0.9600 . ?
C71 O21 1.432(8) . ?
C71 H71A 0.9600 . ?
C71 H71B 0.9600 . ?
C71 H71C 0.9600 . ?
O1 Zn2 2.102(3) . ?
O2 Zn1 1.966(3) . ?
O3 Zn1 1.954(3) 2_665 ?
O4 Zn2 2.144(3) 2_665 ?
O5 Zn3 1.956(3) 2_565 ?
O7 Zn3 1.972(3) . ?
O8 Zn4 2.102(3) . ?
O9 Zn4 2.069(3) 2_666 ?
O10 Zn3 1.978(3) 2_666 ?
O11 Zn1 1.930(3) 1_455 ?
O13 Zn3 1.963(3) . ?
O13 Zn2 2.112(3) . ?
O13 Zn4 2.115(3) . ?
O14 Zn1 1.949(3) . ?
O14 Zn4 2.055(3) . ?
O14 Zn2 2.096(3) . ?
O15 Zn4 2.065(3) . ?
O16 Zn2 2.074(3) . ?
O17 Zn2 2.065(4) . ?
O20 Zn4 2.140(3) . ?
O21 H21 0.8200 . ?
Zn1 O11 1.930(3) 1_655 ?
Zn1 O3 1.954(3) 2_665 ?
Zn2 O4 2.144(3) 2_665 ?
Zn2 Zn4 3.1459(9) . ?
Zn3 O5 1.956(3) 2_565 ?
Zn3 O10 1.978(3) 2_666 ?
Zn3 Zn4 3.1446(8) . ?
Zn4 O9 2.069(3) 2_666 ?

loop_
_geom_angle_atom_site_label_1
_geom_angle_atom_site_label_2
_geom_angle_atom_site_label_3
_geom_angle
_geom_angle_site_symmetry_1
_geom_angle_site_symmetry_3
_geom_angle_publ_flag
O1 C1 O2 126.4(4) . . ?
O1 C1 C2 117.7(4) . . ?
O2 C1 C2 115.8(4) . . ?
C3 C2 C7 119.8(4) . . ?
C3 C2 C1 120.5(4) . . ?
C7 C2 C1 119.7(4) . . ?
C2 C3 C4 120.1(4) . . ?
C2 C3 H3 119.9 . . ?
C4 C3 H3 119.9 . . ?
C5 C4 C3 119.4(4) . . ?
C5 C4 H4 120.3 . . ?
C3 C4 H4 120.3 . . ?
C4 C5 C6 121.8(4) . . ?
C4 C5 H5 119.1 . . ?
C6 C5 H5 119.1 . . ?
C7 C6 C5 118.0(4) . . ?
C7 C6 C8 120.6(4) . . ?
C5 C6 C8 121.3(4) . . ?
C6 C7 C2 120.8(4) . . ?
C6 C7 H7 119.6 . . ?
C2 C7 H7 119.6 . . ?
C13 C8 C9 119.2(4) . . ?
C13 C8 C6 120.6(4) . . ?
C9 C8 C6 120.1(4) . . ?
C10 C9 C8 120.9(4) . . ?
C10 C9 H9 119.5 . . ?
C8 C9 H9 119.5 . . ?
C9 C10 C11 119.0(4) . . ?
C9 C10 C21 121.0(4) . . ?
C11 C10 C21 120.0(4) . . ?
C10 C11 C12 121.0(4) . . ?
C10 C11 H11 119.5 . . ?
C12 C11 H11 119.5 . . ?
C13 C12 C11 118.5(4) . . ?
C13 C12 C14 121.2(4) . . ?
C11 C12 C14 120.3(4) . . ?
C8 C13 C12 121.2(4) . . ?
C8 C13 H13 119.4 . . ?
C12 C13 H13 119.4 . . ?
C19 C14 C15 118.9(4) . . ?
C19 C14 C12 119.5(4) . . ?
C15 C14 C12 121.6(4) . . ?
C14 C15 C16 120.6(4) . . ?
C14 C15 H15 119.7 . . ?
C16 C15 H15 119.7 . . ?
C17 C16 C15 119.6(4) . . ?
C17 C16 C20 119.4(4) . . ?
C15 C16 C20 120.9(4) . . ?
C16 C17 C18 120.0(4) . . ?
C16 C17 H17 120.0 . . ?
C18 C17 H17 120.0 . . ?
C17 C18 C19 120.5(4) . . ?
C17 C18 H18 119.7 . . ?
C19 C18 H18 119.7 . . ?
C14 C19 C18 120.3(4) . . ?
C14 C19 H19 119.9 . . ?
C18 C19 H19 119.9 . . ?
O4 C20 O3 125.6(4) . . ?
O4 C20 C16 119.9(4) . . ?
O3 C20 C16 114.5(4) . . ?
C26 C21 C22 117.4(4) . . ?
C26 C21 C10 122.4(4) . . ?
C22 C21 C10 120.2(4) . . ?
C23 C22 C21 121.9(4) . . ?
C23 C22 H22 119.1 . . ?
C21 C22 H22 119.1 . . ?
C24 C23 C22 119.2(4) . . ?
C24 C23 C27 120.5(4) . . ?
C22 C23 C27 120.4(4) . . ?
C23 C24 C25 119.7(4) . . ?
C23 C24 H24 120.2 . . ?
C25 C24 H24 120.2 . . ?
C26 C25 C24 120.4(4) . . ?
C26 C25 H25 119.8 . . ?
C24 C25 H25 119.8 . . ?
C25 C26 C21 121.5(4) . . ?
C25 C26 H26 119.3 . . ?
C21 C26 H26 119.3 . . ?
O6 C27 O5 124.6(4) . . ?
O6 C27 C23 119.2(4) . . ?
O5 C27 C23 116.2(4) . . ?
O8 C28 O7 125.7(4) . . ?
O8 C28 C29 118.2(4) . . ?
O7 C28 C29 116.1(4) . . ?
C34 C29 C30 119.3(4) . . ?
C34 C29 C28 121.0(4) . . ?
C30 C29 C28 119.6(4) . . ?
C31 C30 C29 121.0(4) . . ?
C31 C30 H30 119.5 . . ?
C29 C30 H30 119.5 . . ?
C30 C31 C32 118.3(4) . . ?
C30 C31 C35 121.7(4) . . ?
C32 C31 C35 120.0(4) . . ?
C33 C32 C31 121.1(4) . . ?
C33 C32 H32 119.5 . . ?
C31 C32 H32 119.5 . . ?
C34 C33 C32 119.7(4) . . ?
C34 C33 H33 120.2 . . ?
C32 C33 H33 120.2 . . ?
C33 C34 C29 120.7(4) . . ?
C33 C34 H34 119.7 . . ?
C29 C34 H34 119.7 . . ?
C40 C35 C36 118.5(4) . . ?
C40 C35 C31 120.1(4) . . ?
C36 C35 C31 121.3(4) . . ?
C37 C36 C35 121.4(4) . . ?
C37 C36 H36 119.3 . . ?
C35 C36 H36 119.3 . . ?
C36 C37 C38 118.7(4) . . ?
C36 C37 C41 121.0(4) . . ?
C38 C37 C41 120.2(4) . . ?
C39 C38 C37 121.3(4) . . ?
C39 C38 H38 119.4 . . ?
C37 C38 H38 119.4 . . ?
C38 C39 C40 118.9(4) . . ?
C38 C39 C48 121.8(4) . . ?
C40 C39 C48 119.2(4) . . ?
C35 C40 C39 121.2(4) . . ?
C35 C40 H40 119.4 . . ?
C39 C40 H40 119.4 . . ?
C42 C41 C46 118.5(4) . . ?
C42 C41 C37 119.7(4) . . ?
C46 C41 C37 121.7(4) . . ?
C41 C42 C43 121.5(4) . . ?
C41 C42 H42 119.2 . . ?
C43 C42 H42 119.2 . . ?
C44 C43 C42 118.4(4) . . ?
C44 C43 C47 121.8(4) . . ?
C42 C43 C47 119.7(4) . . ?
C45 C44 C43 120.9(4) . . ?
C45 C44 H44 119.6 . . ?
C43 C44 H44 119.6 . . ?
C44 C45 C46 120.3(5) . . ?
C44 C45 H45 119.8 . . ?
C46 C45 H45 119.8 . . ?
C45 C46 C41 120.2(4) . . ?
C45 C46 H46 119.9 . . ?
C41 C46 H46 119.9 . . ?
O9 C47 O10 125.9(4) . . ?
O9 C47 C43 116.2(4) . . ?
O10 C47 C43 117.9(4) . . ?
C53 C48 C49 117.9(4) . . ?
C53 C48 C39 121.4(4) . . ?
C49 C48 C39 120.7(4) . . ?
C50 C49 C48 121.4(4) . . ?
C50 C49 H49 119.3 . . ?
C48 C49 H49 119.3 . . ?
C49 C50 C51 119.7(4) . . ?
C49 C50 C54 119.7(4) . . ?
C51 C50 C54 120.6(4) . . ?
C52 C51 C50 119.7(4) . . ?
C52 C51 H51 120.2 . . ?
C50 C51 H51 120.2 . . ?
C51 C52 C53 120.0(4) . . ?
C51 C52 H52 120.0 . . ?
C53 C52 H52 120.0 . . ?
C52 C53 C48 121.3(4) . . ?
C52 C53 H53 119.4 . . ?
C48 C53 H53 119.4 . . ?
O12 C54 O11 126.1(4) . . ?
O12 C54 C50 118.9(4) . . ?
O11 C54 C50 115.0(4) . . ?
O15 C55 N1 123.7(4) . . ?
O15 C55 H55 118.1 . . ?
N1 C55 H55 118.1 . . ?
N1 C56 H56A 109.5 . . ?
N1 C56 H56B 109.5 . . ?
H56A C56 H56B 109.5 . . ?
N1 C56 H56C 109.5 . . ?
H56A C56 H56C 109.5 . . ?
H56B C56 H56C 109.5 . . ?
N1 C57 H57A 109.5 . . ?
N1 C57 H57B 109.5 . . ?
H57A C57 H57B 109.5 . . ?
N1 C57 H57C 109.5 . . ?
H57A C57 H57C 109.5 . . ?
H57B C57 H57C 109.5 . . ?
O16 C58 N2 124.6(5) . . ?
O16 C58 H58 117.7 . . ?
N2 C58 H58 117.7 . . ?
N2 C59 H59A 109.5 . . ?
N2 C59 H59B 109.5 . . ?
H59A C59 H59B 109.5 . . ?
N2 C59 H59C 109.5 . . ?
H59A C59 H59C 109.5 . . ?
H59B C59 H59C 109.5 . . ?
N2 C60 H60A 109.5 . . ?
N2 C60 H60B 109.5 . . ?
H60A C60 H60B 109.5 . . ?
N2 C60 H60C 109.5 . . ?
H60A C60 H60C 109.5 . . ?
H60B C60 H60C 109.5 . . ?
O17 C61 N3 160.8(16) . . ?
O17 C61 H61 99.6 . . ?
N3 C61 H61 99.6 . . ?
N3 C62 H62A 109.5 . . ?
N3 C62 H62B 109.5 . . ?
H62A C62 H62B 109.5 . . ?
N3 C62 H62C 109.5 . . ?
H62A C62 H62C 109.5 . . ?
H62B C62 H62C 109.5 . . ?
N3 C63 H63A 109.5 . . ?
N3 C63 H63B 109.5 . . ?
H63A C63 H63B 109.5 . . ?
N3 C63 H63C 109.5 . . ?
H63A C63 H63C 109.5 . . ?
H63B C63 H63C 109.5 . . ?
O18 C64 N4 134.6(12) . . ?
O18 C64 H64 112.7 . . ?
N4 C64 H64 112.7 . . ?
N4 C65 H65A 109.5 . . ?
N4 C65 H65B 109.5 . . ?
H65A C65 H65B 109.5 . . ?
N4 C65 H65C 109.5 . . ?
H65A C65 H65C 109.5 . . ?
H65B C65 H65C 109.5 . . ?
N4 C66 H66A 109.5 . . ?
N4 C66 H66B 109.5 . . ?
H66A C66 H66B 109.5 . . ?
N4 C66 H66C 109.5 . . ?
H66A C66 H66C 109.5 . . ?
H66B C66 H66C 109.5 . . ?
O19 C67 N5 123.5(8) . . ?
O19 C67 H67 118.3 . . ?
N5 C67 H67 118.3 . . ?
N5 C68 H68A 109.5 . . ?
N5 C68 H68B 109.5 . . ?
H68A C68 H68B 109.5 . . ?
N5 C68 H68C 109.5 . . ?
H68A C68 H68C 109.5 . . ?
H68B C68 H68C 109.5 . . ?
N5 C69 H69A 109.5 . . ?
N5 C69 H69B 109.5 . . ?
H69A C69 H69B 109.5 . . ?
N5 C69 H69C 109.5 . . ?
H69A C69 H69C 109.5 . . ?
H69B C69 H69C 109.5 . . ?
O20 C70 H70A 109.5 . . ?
O20 C70 H70B 109.5 . . ?
H70A C70 H70B 109.5 . . ?
O20 C70 H70C 109.5 . . ?
H70A C70 H70C 109.5 . . ?
H70B C70 H70C 109.5 . . ?
O21 C71 H71A 109.5 . . ?
O21 C71 H71B 109.5 . . ?
H71A C71 H71B 109.5 . . ?
O21 C71 H71C 109.5 . . ?
H71A C71 H71C 109.5 . . ?
H71B C71 H71C 109.5 . . ?
C55 N1 C56 121.2(4) . . ?
C55 N1 C57 121.1(4) . . ?
C56 N1 C57 117.7(4) . . ?
C58 N2 C59 120.5(5) . . ?
C58 N2 C60 121.3(5) . . ?
C59 N2 C60 118.2(5) . . ?
C61 N3 C62 120.5(9) . . ?
C61 N3 C63 120.4(9) . . ?
C62 N3 C63 119.0(7) . . ?
C64 N4 C66 122.0(10) . . ?
C64 N4 C65 120.6(10) . . ?
C66 N4 C65 117.3(10) . . ?
C67 N5 C69 123.5(7) . . ?
C67 N5 C68 118.3(7) . . ?
C69 N5 C68 118.2(6) . . ?
C1 O1 Zn2 139.6(3) . . ?
C1 O2 Zn1 118.9(3) . . ?
C20 O3 Zn1 124.9(3) . 2_665 ?
C20 O4 Zn2 134.1(3) . 2_665 ?
C27 O5 Zn3 112.1(3) . 2_565 ?
C28 O7 Zn3 122.3(3) . . ?
C28 O8 Zn4 136.9(3) . . ?
C47 O9 Zn4 140.7(3) . 2_666 ?
C47 O10 Zn3 119.0(3) . 2_666 ?
C54 O11 Zn1 121.9(3) . 1_455 ?
Zn3 O13 Zn2 131.02(14) . . ?
Zn3 O13 Zn4 100.84(12) . . ?
Zn2 O13 Zn4 96.17(11) . . ?
Zn1 O14 Zn4 126.80(14) . . ?
Zn1 O14 Zn2 102.76(12) . . ?
Zn4 O14 Zn2 98.55(12) . . ?
C55 O15 Zn4 125.2(3) . . ?
C58 O16 Zn2 127.9(3) . . ?
C61 O17 Zn2 160.8(11) . . ?
C70 O20 Zn4 125.4(4) . . ?
C71 O21 H21 109.5 . . ?
O11 Zn1 O14 116.19(13) 1_655 . ?
O11 Zn1 O3 102.57(13) 1_655 2_665 ?
O14 Zn1 O3 112.44(12) . 2_665 ?
O11 Zn1 O2 115.60(14) 1_655 . ?
O14 Zn1 O2 104.95(13) . . ?
O3 Zn1 O2 104.70(14) 2_665 . ?
O17 Zn2 O16 84.34(17) . . ?
O17 Zn2 O14 93.28(16) . . ?
O16 Zn2 O14 176.37(12) . . ?
O17 Zn2 O1 90.01(18) . . ?
O16 Zn2 O1 87.15(13) . . ?
O14 Zn2 O1 90.11(11) . . ?
O17 Zn2 O13 88.47(17) . . ?
O16 Zn2 O13 100.48(12) . . ?
O14 Zn2 O13 82.17(11) . . ?
O1 Zn2 O13 172.03(11) . . ?
O17 Zn2 O4 169.10(19) . 2_665 ?
O16 Zn2 O4 86.31(13) . 2_665 ?
O14 Zn2 O4 96.32(11) . 2_665 ?
O1 Zn2 O4 95.11(12) . 2_665 ?
O13 Zn2 O4 87.73(11) . 2_665 ?
O17 Zn2 Zn4 92.37(12) . . ?
O16 Zn2 Zn4 142.42(10) . . ?
O14 Zn2 Zn4 40.25(7) . . ?
O1 Zn2 Zn4 130.35(8) . . ?
O13 Zn2 Zn4 41.95(7) . . ?
O4 Zn2 Zn4 91.63(8) 2_665 . ?
O5 Zn3 O13 111.41(13) 2_565 . ?
O5 Zn3 O7 100.11(13) 2_565 . ?
O13 Zn3 O7 112.13(13) . . ?
O5 Zn3 O10 121.13(13) 2_565 2_666 ?
O13 Zn3 O10 108.76(13) . 2_666 ?
O7 Zn3 O10 102.54(14) . 2_666 ?
O5 Zn3 Zn4 149.67(10) 2_565 . ?
O13 Zn3 Zn4 41.35(8) . . ?
O7 Zn3 Zn4 84.62(9) . . ?
O10 Zn3 Zn4 86.28(9) 2_666 . ?
O14 Zn4 O15 97.72(12) . . ?
O14 Zn4 O9 174.85(11) . 2_666 ?
O15 Zn4 O9 87.23(12) . 2_666 ?
O14 Zn4 O8 87.89(11) . . ?
O15 Zn4 O8 88.14(12) . . ?
O9 Zn4 O8 93.71(13) 2_666 . ?
O14 Zn4 O13 83.05(11) . . ?
O15 Zn4 O13 175.31(12) . . ?
O9 Zn4 O13 91.90(11) 2_666 . ?
O8 Zn4 O13 96.51(11) . . ?
O14 Zn4 O20 90.31(12) . . ?
O15 Zn4 O20 86.66(12) . . ?
O9 Zn4 O20 88.56(13) 2_666 . ?
O8 Zn4 O20 174.22(12) . . ?
O13 Zn4 O20 88.71(12) . . ?
O14 Zn4 Zn3 108.20(8) . . ?
O15 Zn4 Zn3 144.92(9) . . ?
O9 Zn4 Zn3 67.89(9) 2_666 . ?
O8 Zn4 Zn3 70.07(8) . . ?
O13 Zn4 Zn3 37.81(8) . . ?
O20 Zn4 Zn3 115.70(9) . . ?
O14 Zn4 Zn2 41.20(7) . . ?
O15 Zn4 Zn2 138.57(9) . . ?
O9 Zn4 Zn2 133.71(9) 2_666 . ?
O8 Zn4 Zn2 94.06(8) . . ?
O13 Zn4 Zn2 41.88(8) . . ?
O20 Zn4 Zn2 88.18(9) . . ?
Zn3 Zn4 Zn2 72.26(2) . . ?

_diffrn_measured_fraction_theta_max 0.818
_diffrn_reflns_theta_full        31.33
_diffrn_measured_fraction_theta_full 0.818
_refine_diff_density_max         1.285
_refine_diff_density_min         -1.248
_refine_diff_density_rms         0.215
